     Program PWSCF v.6.4.1 starts on 15Jun2022 at 15: 7:37

     K-points division:     npool     =       8
     R & G space division:  proc/nbgrp/npool/nimage =      20
     Waiting for input...
     Reading input from standard input
Warning: card &CELL ignored
Warning: card / ignored

     Current dimensions of program PWSCF are:
     Max number of different atomic species (ntypx) = 10
     Max number of k-points (npk) =  40000
     Max angular momentum in pseudopotentials (lmaxx) =  3

     IMPORTANT: XC functional enforced from input :
     Exchange-correlation      = PBE ( 1  4  3  4 0 0)
     Any further DFT definition will be discarded
     Please, verify this is what you really want

               file Fe.pbe-spn-kjpaw_psl.0.2.1.UPF: wavefunction(s)  3D renormalized

     Parameters for Dispersion (Grimme-D2) Correction:
       atom      VdW radius       C_6

        Fe         2.952        374.666
        N          2.640         42.670
        H          1.892          4.857

     bravais-lattice index     =            0
     lattice parameter (alat)  =      18.7640  a.u.
     unit-cell volume          =   16360.3163 (a.u.)^3
     number of atoms/cell      =           67
     number of atomic types    =            3
     number of electrons       =      1031.00
     number of Kohn-Sham states=          619
     kinetic-energy cutoff     =      60.0000  Ry
     charge density cutoff     =     480.0000  Ry
     convergence threshold     =      1.0E-08
     mixing beta               =       0.2000
     number of iterations used =           10  local-TF  mixing
     Exchange-correlation      = PBE ( 1  4  3  4 0 0)
     nstep                     =           50

     Effective Screening Medium Method
     Boundary Conditions: Metal-Slab-Metal
     field strength                   =    -0.02 Ry/a.u.
     grid points for fit at edges     =        4

     celldm(1)=  18.764036  celldm(2)=   0.000000  celldm(3)=   0.000000
     celldm(4)=   0.000000  celldm(5)=   0.000000  celldm(6)=   0.000000

     crystal axes: (cart. coord. in units of alat)
               a(1) = (   1.000000   0.000000   0.000000 )
               a(2) = (   0.333330   0.942807   0.000000 )
               a(3) = (   0.000000   0.000000   2.626577 )

     reciprocal axes: (cart. coord. in units 2 pi/alat)
               b(1) = (  1.000000 -0.353551  0.000000 )
               b(2) = (  0.000000  1.060663  0.000000 )
               b(3) = (  0.000000  0.000000  0.380724 )

     PseudoPot. # 1 for Fe read from file:
     ../../SSSP/Fe.pbe-spn-kjpaw_psl.0.2.1.UPF
     MD5 check sum: e86618425769142926afa95317d90200
     Pseudo is Projector augmented-wave + core cor, Zval = 16.0
     Generated using "atomic" code by A. Dal Corso v.5.0.99 svn rev. 10869
     Shape of augmentation charge: PSQ
     Using radial grid of 1191 points,  6 beta functions with:
                l(1) =   0
                l(2) =   0
                l(3) =   1
                l(4) =   1
                l(5) =   2
                l(6) =   2
     Q(r) pseudized with 0 coefficients

     PseudoPot. # 2 for N  read from file:
     ../../SSSP/N.pbe-n-radius_5.UPF
     MD5 check sum: 16739722b17309cd8fe442a2ace49922
     Pseudo is Ultrasoft + core correction, Zval =  5.0
     Generated using "atomic" code by A. Dal Corso v.5.1
     Using radial grid of 1085 points,  4 beta functions with:
                l(1) =   0
                l(2) =   0
                l(3) =   1
                l(4) =   1
     Q(r) pseudized with 0 coefficients

     PseudoPot. # 3 for H  read from file:
     ../../SSSP/H.pbe-rrkjus_psl.1.0.0.UPF
     MD5 check sum: f52b6d4d1c606e5624b1dc7b2218f220
     Pseudo is Ultrasoft, Zval =  1.0
     Generated using "atomic" code by A. Dal Corso v.5.1
     Using radial grid of  929 points,  2 beta functions with:
                l(1) =   0
                l(2) =   0
     Q(r) pseudized with 0 coefficients

     atomic species   valence    mass     pseudopotential
        Fe            16.00    55.84500     Fe( 1.00)
        N              5.00    14.00700     N ( 1.00)
        H              1.00     1.00800     H ( 1.00)

     Starting magnetic structure
     atomic species   magnetization
        Fe           0.100
        N            0.100
        H            0.100

     No symmetry found

   Cartesian axes

     site n.     atom                  positions (alat units)
         1           Fe  tau(   1) = (   0.1666663   0.1178509   0.0000000  )
         2           Fe  tau(   2) = (   0.0000000   0.0000000   0.2041376  )
         3           Fe  tau(   3) = (   0.4999989   0.3535526   0.0000000  )
         4           Fe  tau(   4) = (   0.3333326   0.2357017   0.2041376  )
         5           Fe  tau(   5) = (   0.1659359   0.1176311   0.4052025  )
         6           Fe  tau(   6) = (   0.3326881   0.9437255   0.6040354  )
         7           Fe  tau(   7) = (   0.4995391   0.3540032   0.4039563  )
         8           Fe  tau(   8) = (   0.3328696   0.2348319   0.6040477  )
         9           Fe  tau(   9) = (   0.2499989   0.3535526   0.0000000  )
        10           Fe  tau(  10) = (   0.4166663   0.1178509   0.0000000  )
        11           Fe  tau(  11) = (   0.0833326   0.2357017   0.2041376  )
        12           Fe  tau(  12) = (   0.2500000   0.0000000   0.2041376  )
        13           Fe  tau(  13) = (   0.2500010   0.3535467   0.4055083  )
        14           Fe  tau(  14) = (   0.4158827   0.1173005   0.4045578  )
        15           Fe  tau(  15) = (   0.0818930   0.2360863   0.6031025  )
        16           Fe  tau(  16) = (   0.2495380  -0.0003220   0.6050935  )
        17           Fe  tau(  17) = (   0.6666663   0.1178509   0.0000000  )
        18           Fe  tau(  18) = (   0.5000000   0.0000000   0.2041376  )
        19           Fe  tau(  19) = (   0.9999989   0.3535526   0.0000000  )
        20           Fe  tau(  20) = (   0.8333326   0.2357017   0.2041376  )
        21           Fe  tau(  21) = (   0.6669496   0.1172593   0.4039585  )
        22           Fe  tau(  22) = (   0.4990421  -0.0001530   0.6039930  )
        23           Fe  tau(  23) = (   1.0004770   0.3530937   0.4039548  )
        24           Fe  tau(  24) = (   0.8336397   0.2353232   0.6129261  )
        25           Fe  tau(  25) = (   0.7499989   0.3535526   0.0000000  )
        26           Fe  tau(  26) = (   0.9166663   0.1178509   0.0000000  )
        27           Fe  tau(  27) = (   0.5833326   0.2357017   0.2041376  )
        28           Fe  tau(  28) = (   0.7500000   0.0000000   0.2041376  )
        29           Fe  tau(  29) = (   0.7500132   0.3535456   0.4072253  )
        30           Fe  tau(  30) = (   0.9155726   0.1194065   0.4075667  )
        31           Fe  tau(  31) = (   0.5786815   0.2324049   0.5969489  )
        32           Fe  tau(  32) = (   1.0834624   0.9443178   0.6031102  )
        33           Fe  tau(  33) = (   0.3333315   0.5892543   0.0000000  )
        34           Fe  tau(  34) = (   0.1666652   0.4714034   0.2041376  )
        35           Fe  tau(  35) = (   0.6666640   0.8249560   0.0000000  )
        36           Fe  tau(  36) = (   0.4999978   0.7071052   0.2041376  )
        37           Fe  tau(  37) = (   0.3340495   0.5894942   0.4052040  )
        38           Fe  tau(  38) = (   1.1671442   0.4722673   0.6039905  )
        39           Fe  tau(  39) = (   0.6662045   0.8243680   0.4051981  )
        40           Fe  tau(  40) = (   0.5006306   0.7062207   0.6039894  )
        41           Fe  tau(  41) = (   0.4166640   0.8249560   0.0000000  )
        42           Fe  tau(  42) = (   0.5833315   0.5892543   0.0000000  )
        43           Fe  tau(  43) = (   0.2499978   0.7071052   0.2041376  )
        44           Fe  tau(  44) = (   0.4166652   0.4714034   0.2041376  )
        45           Fe  tau(  45) = (   0.4166461   0.8249874   0.4057985  )
        46           Fe  tau(  46) = (   0.5844173   0.5877265   0.4075492  )
        47           Fe  tau(  47) = (   1.2504626   0.7074473   0.6050915  )
        48           Fe  tau(  48) = (   0.4181389   0.4710288   0.6031145  )
        49           Fe  tau(  49) = (   0.8333315   0.5892543   0.0000000  )
        50           Fe  tau(  50) = (   0.6666652   0.4714034   0.2041376  )
        51           Fe  tau(  51) = (   1.1666640   0.8249560   0.0000000  )
        52           Fe  tau(  52) = (   0.9999978   0.7071052   0.2041376  )
        53           Fe  tau(  53) = (   0.8330709   0.5898452   0.4039536  )
        54           Fe  tau(  54) = (   0.6664300   0.4717667   0.6128995  )
        55           Fe  tau(  55) = (   1.1671198   0.8255778   0.4052040  )
        56           Fe  tau(  56) = (   1.0009823   0.7072656   0.6040438  )
        57           Fe  tau(  57) = (   0.9166640   0.8249560   0.0000000  )
        58           Fe  tau(  58) = (   1.0833315   0.5892543   0.0000000  )
        59           Fe  tau(  59) = (   0.7499978   0.7071052   0.2041376  )
        60           Fe  tau(  60) = (   0.9166652   0.4714034   0.2041376  )
        61           Fe  tau(  61) = (   0.9166763   0.8249629   0.4055057  )
        62           Fe  tau(  62) = (   1.0841225   0.5898139   0.4045586  )
        63           Fe  tau(  63) = (   0.7498702   0.7056126   0.6031035  )
        64           Fe  tau(  64) = (   0.9213426   0.4747010   0.5969431  )
        65           N   tau(  65) = (   0.7501270   0.3536308   0.7528722  )
        66           H   tau(  66) = (   0.8165858   0.4006924   0.8171405  )
        67           H   tau(  67) = (   0.6836855   0.3066136   0.8171856  )

     number of k points=    10  Methfessel-Paxton smearing, width (Ry)=  0.0100
                       cart. coord. in units 2pi/alat
        k(    1) = (   0.0000000   0.0000000   0.0000000), wk =   0.0625000
        k(    2) = (   0.0000000   0.2651656   0.0000000), wk =   0.1250000
        k(    3) = (   0.0000000  -0.5303313   0.0000000), wk =   0.0625000
        k(    4) = (   0.2500000  -0.0883878   0.0000000), wk =   0.1250000
        k(    5) = (   0.2500000   0.1767779   0.0000000), wk =   0.1250000
        k(    6) = (   0.2500000  -0.6187190   0.0000000), wk =   0.1250000
        k(    7) = (   0.2500000  -0.3535534   0.0000000), wk =   0.1250000
        k(    8) = (  -0.5000000   0.1767755   0.0000000), wk =   0.0625000
        k(    9) = (  -0.5000000   0.4419412   0.0000000), wk =   0.1250000
        k(   10) = (  -0.5000000  -0.3535558   0.0000000), wk =   0.0625000

     Check: negative core charge=   -0.000039

     Initial potential from superposition of free atoms

     starting charge 1030.97192, renormalised to 1031.00000

     negative rho (up, down):  2.438E-02 2.570E-03
     Starting wfcs are  838 randomized atomic wfcs
     Checking if some PAW data can be deallocated...

     Self-consistent Calculation

     iteration #  1     ecut=    60.00 Ry     beta= 0.20
     Davidson diagonalization with overlap
     ethr =  1.00E-04,  avg # of iterations = 18.4

     negative rho (up, down):  1.495E-02 3.136E-03

     total energy              =  -21079.47635453 Ry
     Harris-Foulkes estimate   =  -21101.91887004 Ry
[...]
     atom:   59    charge:   13.2616    magn:    2.3051    constr:    0.0000
     atom:   60    charge:   13.2618    magn:    2.3225    constr:    0.0000
     atom:   61    charge:   13.2653    magn:    2.3025    constr:    0.0000
     atom:   62    charge:   13.2651    magn:    2.2840    constr:    0.0000
     atom:   63    charge:   13.2647    magn:    2.5114    constr:    0.0000
     atom:   64    charge:   13.2788    magn:    2.4628    constr:    0.0000
     atom:   65    charge:    1.3502    magn:   -0.0036    constr:    0.0000
     atom:   66    charge:    0.4432    magn:    0.0085    constr:    0.0000
     atom:   67    charge:    0.4433    magn:    0.0085    constr:    0.0000

     End of self-consistent calculation

 ------ SPIN UP ------------

[...]

 ------ SPIN DOWN ----------

[...]

          k = 0.2500-0.3536 0.0000 (128397 PWs)   bands (ev):

[...]

          k =-0.5000-0.3536 0.0000 (128560 PWs)   bands (ev):

   -97.5064 -97.5028 -97.2750 -97.2738 -97.2444 -97.2351 -97.2236 -97.2229
   -97.2146 -97.2129 -97.2051 -97.2031 -97.2006 -97.1963 -97.1953 -97.1951
   -97.1944 -97.1936 -97.1868 -97.1830 -97.1814 -97.1808 -97.1803 -97.1788
   -97.1756 -97.1728 -97.1724 -97.1689 -97.1658 -97.1653 -97.1564 -97.1529
   -97.1518 -97.1480 -97.1462 -97.1355 -97.1352 -97.1332 -97.1299 -97.1289
   -97.1271 -97.1264 -97.1241 -97.1233 -97.1175 -97.1090 -97.1086 -97.1079
   -97.1061 -97.1055 -97.1052 -97.1052 -97.1027 -97.1025 -97.1019 -97.1008
   -97.0950 -97.0936 -97.0887 -97.0841 -97.0810 -97.0807 -97.0796 -97.0785
   -63.8324 -63.8145 -63.6226 -63.6136 -63.5298 -63.5171 -63.5069 -63.5043
   -63.5010 -63.4918 -63.4894 -63.4890 -63.4807 -63.4804 -63.4794 -63.4770
   -63.4767 -63.4753 -63.4715 -63.4687 -63.4655 -63.4649 -63.4637 -63.4608
   -63.4597 -63.4591 -63.4565 -63.4529 -63.4462 -63.4447 -63.4328 -63.4297
   -63.4280 -63.4267 -63.4241 -63.4211 -63.4192 -63.4132 -63.4067 -63.4039
   -63.4036 -63.4026 -63.4024 -63.3955 -63.3932 -63.3909 -63.3906 -63.3900
   -63.3890 -63.3873 -63.3835 -63.3818 -63.3810 -63.3797 -63.3782 -63.3757
   -63.3725 -63.3707 -63.3698 -63.3693 -63.3689 -63.3669 -63.3657 -63.3643
   -63.3518 -63.3415 -63.3411 -63.3379 -63.3361 -63.3312 -63.3296 -63.3193
   -63.3179 -63.3178 -63.3087 -63.3068 -63.3068 -63.3053 -63.2993 -63.2905
   -63.2903 -63.2852 -63.2834 -63.2832 -63.2814 -63.2804 -63.2769 -63.2759
   -63.2759 -63.2749 -63.2698 -63.2668 -63.2629 -63.2625 -63.2618 -63.2553
   -63.2552 -63.2524 -63.2522 -63.2478 -63.2434 -63.2356 -63.2347 -63.2346
   -63.2323 -63.2304 -63.2301 -63.2282 -63.2265 -63.2261 -63.2237 -63.2200
   -63.2185 -63.2174 -63.2149 -63.2135 -63.2113 -63.2090 -63.2073 -63.2068
   -63.2063 -63.2061 -63.2032 -63.1979 -63.1968 -63.1936 -63.1922 -63.1893
   -63.1887 -63.1880 -63.1853 -63.1809 -63.1751 -63.1749 -63.1716 -63.1706
   -63.1688 -63.1679 -63.1678 -63.1672 -63.1649 -63.1643 -63.1630 -63.1627
   -63.1606 -63.1589 -63.1573 -63.1563 -63.1560 -63.1548 -63.1518 -63.1515
   -63.1478 -63.1473 -63.1471 -63.1452 -63.1443 -63.1426 -63.1407 -63.1403
   -63.1396 -63.1392 -63.1387 -63.1370 -63.1361 -63.1349 -63.1345 -63.1335
   -63.1330 -63.1317 -63.1294 -63.1286 -63.1271 -63.1254 -63.1246 -63.1239
   -63.1237 -63.1217 -63.1211 -63.1192 -63.1172 -63.1155 -63.1155 -63.1124
   -63.1115 -63.1095 -63.1087 -63.1086 -63.1077 -63.1056 -63.1050 -63.1041
   -29.0357 -19.9433 -19.2591 -19.1775 -18.7774 -18.6032 -18.4668 -17.8799
   -17.7288 -17.3779 -17.2381 -16.6420 -16.5980 -16.5913 -16.5785 -16.1747
   -16.1510 -16.0877 -15.7523 -15.7454 -15.7440 -15.7354 -15.7203 -15.7005
   -15.6222 -15.6183 -15.6177 -15.6116 -15.5461 -15.4941 -15.1988 -15.1935
   -15.1844 -15.1793 -15.1519 -15.1262 -14.9747 -14.9564 -14.7208 -14.7165
   -14.6863 -14.6686 -14.6679 -14.6513 -14.6225 -14.6152 -14.5934 -14.5695
   -14.5682 -14.5415 -14.4261 -14.4230 -14.4152 -14.4066 -14.4035 -14.3494
   -14.1597 -14.1454 -14.1394 -14.1380 -14.1225 -14.1174 -13.9135 -13.8864
   -13.8706 -13.8608 -13.8138 -13.8123 -13.7223 -13.7061 -13.6394 -13.6277
   -13.6265 -13.6176 -13.6082 -13.6074 -13.6003 -13.5963 -13.5962 -13.5918
   -13.5279 -13.5126 -13.5078 -13.4991 -13.4963 -13.4943 -13.4864 -13.4863
   -13.4817 -13.4722 -13.4694 -13.4090 -13.2837 -13.2757 -13.2539 -13.2538
   -13.1558 -13.1431 -13.1430 -13.1367 -13.1159 -13.1124 -13.1061 -13.0910
   -13.0906 -13.0769 -13.0601 -13.0590 -13.0587 -13.0539 -13.0481 -13.0364
   -13.0321 -13.0319 -13.0179 -13.0067 -13.0019 -12.9960 -12.9948 -12.9917
   -12.9874 -12.9833 -12.9825 -12.9686 -12.9562 -12.9417 -12.9327 -12.9092
   -12.9042 -12.8964 -12.8935 -12.8856 -12.8855 -12.8785 -12.8784 -12.8773
   -12.8754 -12.8644 -12.8519 -12.8183 -12.8110 -12.8026 -12.6878 -12.6746
   -12.6262 -12.6261 -12.6227 -12.6172 -12.6084 -12.5737 -12.5720 -12.5439
   -12.5387 -12.5181 -12.4449 -12.4438 -12.4407 -12.4306 -12.4218 -12.4066
   -12.3979 -12.3858 -12.3853 -12.3636 -12.3601 -12.3240 -12.2999 -12.2574
   -12.2020 -12.1848 -12.1796 -12.1693 -12.1007 -12.0969 -12.0969 -12.0950
   -12.0870 -12.0827 -12.0774 -12.0687 -12.0180 -12.0068 -11.9931 -11.9789
   -11.9725 -11.9669 -11.9411 -11.9321 -11.9289 -11.6938 -11.6748 -11.6275
   -11.6038 -11.5815 -11.5609 -11.5109 -11.4568 -11.3385 -11.3209 -11.3193
   -11.3114 -11.2549 -11.2533 -11.2416 -11.1695 -11.1639 -11.1425 -11.1392
   -11.1367 -11.1171 -11.1075 -11.0792 -11.0591 -11.0441 -11.0262 -11.0221
   -11.0125 -10.9703 -10.9694 -10.9371 -10.8953 -10.8848 -10.8718 -10.8492
[...]
   -10.5543 -10.5347 -10.5225 -10.4799 -10.4763 -10.4655 -10.4143 -10.4072
   -10.3765 -10.3755 -10.3741 -10.3662 -10.3627 -10.3544 -10.3479 -10.3479
   -10.3477 -10.3331 -10.3243 -10.3226 -10.3185 -10.3108 -10.3035 -10.3000
   -10.2955 -10.2904 -10.2751 -10.2505 -10.2456 -10.2451 -10.2370 -10.2339
   -10.2283 -10.2242 -10.2149 -10.2134 -10.2078 -10.1951 -10.1854 -10.1835
   -10.1807 -10.1802 -10.1776 -10.1727 -10.1681 -10.1429 -10.1423 -10.1412
   -10.1323 -10.1244 -10.1234 -10.1207 -10.1195 -10.1187 -10.0944 -10.0829
   -10.0810 -10.0671 -10.0271 -10.0061 -10.0058 -10.0031  -9.9954  -9.9766
    -9.9655  -9.9580  -9.9494  -9.9418  -9.9414  -9.9409  -9.9349  -9.9342
    -9.9335  -9.9306  -9.9261  -9.9246  -9.9226  -9.9219  -9.9116  -9.9052
    -9.8964  -9.8694  -9.8685  -9.8673  -9.8659  -9.8605  -9.8562  -9.8560
    -9.8450  -9.8433  -9.8318  -9.8278  -9.8253  -9.7672  -9.7539  -9.7532
    -9.7436  -9.7427  -9.7311  -9.6926  -9.5453  -9.5400  -9.5282  -9.4883
    -9.3315  -9.3179  -9.3137  -9.3057  -9.2476  -9.2413  -9.2325  -9.2241
    -9.2164  -9.2105  -9.2012

     the Fermi energy is   -12.0703 ev

!    total energy              =  -21095.09926338 Ry
     Harris-Foulkes estimate   =  -21095.09926201 Ry
     estimated scf accuracy    <          3.2E-11 Ry

     The total energy is the sum of the following terms:

     one-electron contribution = -744279.82820927 Ry
     hartree contribution      =  371678.16608623 Ry
     xc contribution           =   -2234.96210543 Ry
     ewald contribution        =  358616.34986608 Ry
     Dispersion Correction     =      -1.39422391 Ry
     one-center paw contrib.   =   -4873.43099311 Ry
     smearing contrib. (-TS)   =       0.00031603 Ry

     total magnetization       =   162.73 Bohr mag/cell
     absolute magnetization    =   169.15 Bohr mag/cell

     convergence has been achieved in  37 iterations

     negative rho (up, down):  1.088E-02 1.236E-01

     Forces acting on atoms (cartesian axes, Ry/au):

     atom    1 type  1   force =     0.00022675   -0.00005649    0.01007887
     atom    2 type  1   force =    -0.00099253    0.00141359   -0.00456469
     atom    3 type  1   force =     0.00041771    0.00017406    0.00992346
     atom    4 type  1   force =    -0.00055706    0.00019989   -0.00945632
     atom    5 type  1   force =    -0.00008045   -0.00000123    0.00006455
     atom    6 type  1   force =     0.00000435   -0.00000595    0.00008475
     atom    7 type  1   force =     0.00000692   -0.00003282   -0.00002475
     atom    8 type  1   force =    -0.00004663    0.00001986   -0.00005244
     atom    9 type  1   force =     0.00000221   -0.00000326    0.00989626
     atom   10 type  1   force =    -0.00029356   -0.00023594    0.00906411
     atom   11 type  1   force =     0.00011676    0.00004178   -0.00941250
     atom   12 type  1   force =    -0.00010628    0.00002058   -0.00880197
     atom   13 type  1   force =    -0.00000359    0.00000375    0.00001656
     atom   14 type  1   force =    -0.00003778   -0.00002684    0.00005134
     atom   15 type  1   force =    -0.00005182    0.00002669    0.00005743
     atom   16 type  1   force =    -0.00006799   -0.00004308   -0.00000224
     atom   17 type  1   force =     0.00033925    0.00035373    0.00990928
     atom   18 type  1   force =     0.00009141   -0.00060233   -0.00943561
     atom   19 type  1   force =    -0.00044485   -0.00020331    0.00990080
     atom   20 type  1   force =    -0.00013070    0.00019302   -0.00583642
     atom   21 type  1   force =    -0.00003454    0.00002110   -0.00002964
     atom   22 type  1   force =     0.00000100   -0.00004708   -0.00003083
     atom   23 type  1   force =    -0.00000716    0.00003939   -0.00002866
     atom   24 type  1   force =    -0.00013980    0.00019578    0.00008732
     atom   25 type  1   force =     0.00002369   -0.00003367    0.00923480
     atom   26 type  1   force =    -0.00007362    0.00008751    0.00948163
     atom   27 type  1   force =     0.00026272    0.00009137   -0.01044118
     atom   28 type  1   force =    -0.00006374   -0.00008030   -0.00940382
     atom   29 type  1   force =    -0.00000184    0.00000351   -0.00019416
     atom   30 type  1   force =     0.00001062   -0.00001467   -0.00013766
     atom   31 type  1   force =    -0.00002281   -0.00000795    0.00010784
     atom   32 type  1   force =    -0.00000662    0.00005866    0.00005566
     atom   33 type  1   force =    -0.00023965    0.00003293    0.01007601
     atom   34 type  1   force =     0.00053393   -0.00027747   -0.00943162
     atom   35 type  1   force =     0.00004441    0.00023819    0.01008927
     atom   36 type  1   force =     0.00088960   -0.00126304   -0.00455433
     atom   37 type  1   force =     0.00007939   -0.00000063    0.00006750
     atom   38 type  1   force =     0.00004301   -0.00001758   -0.00003115
     atom   39 type  1   force =    -0.00002732   -0.00007690    0.00006501
     atom   40 type  1   force =    -0.00000598    0.00000795    0.00010342
     atom   41 type  1   force =    -0.00001400    0.00001910    0.00752818
     atom   42 type  1   force =     0.00003549   -0.00004976    0.00943159
     atom   43 type  1   force =     0.00000807    0.00012329   -0.00879005
     atom   44 type  1   force =    -0.00014958   -0.00006980   -0.00942384
     atom   45 type  1   force =     0.00000305   -0.00000459    0.00000121
     atom   46 type  1   force =    -0.00002002    0.00002654   -0.00014173
     atom   47 type  1   force =     0.00006258    0.00004847   -0.00000319
     atom   48 type  1   force =     0.00005039   -0.00002374    0.00006211
     atom   49 type  1   force =    -0.00030739   -0.00034623    0.00993596
     atom   50 type  1   force =     0.00022976   -0.00033060   -0.00591736
     atom   51 type  1   force =    -0.00001468   -0.00023149    0.01008988
     atom   52 type  1   force =    -0.00001086    0.00060577   -0.00946543
     atom   53 type  1   force =     0.00002749   -0.00001570   -0.00002577
     atom   54 type  1   force =     0.00013291   -0.00018675    0.00009715
     atom   55 type  1   force =     0.00002846    0.00007594    0.00006414
     atom   56 type  1   force =    -0.00000092    0.00005108   -0.00004833
     atom   57 type  1   force =     0.00000357   -0.00000194    0.00991191
     atom   58 type  1   force =     0.00031626    0.00020708    0.00905971
     atom   59 type  1   force =     0.00010827    0.00011551   -0.00942715
     atom   60 type  1   force =    -0.00017988   -0.00020589   -0.01045150
     atom   61 type  1   force =    -0.00000266    0.00000464    0.00001625
     atom   62 type  1   force =     0.00003801    0.00002683    0.00005112
     atom   63 type  1   force =     0.00000551   -0.00005297    0.00006342
     atom   64 type  1   force =     0.00001529    0.00002170    0.00010455
     atom   65 type  2   force =    -0.00003670   -0.00001808    0.00005100
     atom   66 type  3   force =    -0.00003656   -0.00002474   -0.00008319
     atom   67 type  3   force =     0.00005070    0.00004354   -0.00011140

     Total force =     0.000629     Total SCF correction =     0.000015

     bfgs converged in  18 scf cycles and  17 bfgs steps
     (criteria: energy <  7.3E-07 Ry, force <  3.9E-04 Ry/Bohr)

     End of BFGS Geometry Optimization

     Final energy   =  -21095.0992633769 Ry
Begin final coordinates

ATOMIC_POSITIONS (angstrom)
Fe       1.654912953   1.170200133   0.000000000    0   0   0
Fe       0.000000000   0.000000000   2.026984232    0   0   0
Fe       4.964738858   3.510600399   0.000000000    0   0   0
Fe       3.309825906   2.340400266   2.026984232    0   0   0
Fe       1.648403166   1.167913856   4.028285884
Fe       3.303667287   9.370390283   6.006801743
Fe       4.960953803   3.515935235   4.016354393
Fe       3.309454602   2.331182205   6.005807825
Fe       2.482363858   3.510600399   0.000000000    0   0   0
Fe       4.137287953   1.170200133   0.000000000    0   0   0
Fe       0.827450906   2.340400266   2.026984232    0   0   0
Fe       2.482375000   0.000000000   2.026984232    0   0   0
Fe       2.482297287   3.510375860   4.031898085
Fe       4.131067012   1.165886299   4.020851701
Fe       0.811308749   2.341898659   5.997499022
Fe       2.478795826  -0.002738658   6.018755345
Fe       6.619662953   1.170200133   0.000000000    0   0   0
Fe       4.964750000   0.000000000   2.026984232    0   0   0
Fe       9.929488858   3.510600399   0.000000000    0   0   0
Fe       8.274575906   2.340400266   2.026984232    0   0   0
Fe       6.623500941   1.164857738   4.016255313
Fe       4.956384299   0.002826775   6.005455136
Fe       9.933347957   3.505254553   4.016218128
Fe       8.273417438   2.342500405   6.111110622
Fe       7.447113858   3.510600399   0.000000000    0   0   0
Fe       9.102037953   1.170200133   0.000000000    0   0   0
Fe       5.792200906   2.340400266   2.026984232    0   0   0
Fe       7.447125000   0.000000000   2.026984232    0   0   0
Fe       7.447224440   3.510547602   4.050605734
Fe       9.090751132   1.186243290   4.053552010
Fe       5.755569237   2.314305654   5.936295256
Fe      10.761006523   9.377533152   5.997625166
Fe       3.309814764   5.851000664   0.000000000    0   0   0
Fe       1.654901811   4.680800531   2.026984232    0   0   0
Fe       6.619640670   8.191400930   0.000000000    0   0   0
Fe       4.964727717   7.021200797   2.026984232    0   0   0
Fe       3.316003532   5.853380207   4.028088032
Fe      11.584643693   4.689720965   6.005480599
Fe       6.615395872   8.186440793   4.028051933
Fe       4.970869195   7.012599928   6.005500420
Fe       4.137265670   8.191400930   0.000000000    0   0   0
Fe       5.792189764   5.851000664   0.000000000    0   0   0
Fe       2.482352717   7.021200797   2.026984232    0   0   0
Fe       4.137276811   4.680800531   2.026984232    0   0   0
Fe       4.137086106   8.191713972   4.034434380
Fe       5.803457057   5.835139795   4.053229756
Fe      12.415714574   7.023750018   6.018761750
Fe       4.153219078   4.679455297   5.997406902
Fe       8.274564764   5.851000664   0.000000000    0   0   0
Fe       6.619651811   4.680800531   2.026984232    0   0   0
Fe      11.584390670   8.191400930   0.000000000    0   0   0
Fe       9.929477717   7.021200797   2.026984232    0   0   0
Fe       8.270898674   5.856404397   4.016330218
Fe       6.621155961   4.679033897   6.110911391
Fe      11.588756817   8.196839180   4.028331692
Fe       9.938382787   7.018595451   6.005736614
Fe       9.102015670   8.191400930   0.000000000    0   0   0
Fe      10.756939764   5.851000664   0.000000000    0   0   0
Fe       7.447102717   7.021200797   2.026984232    0   0   0
Fe       9.102026811   4.680800531   2.026984232    0   0   0
Fe       9.102316929   8.191464406   4.031843890
Fe      10.763182706   5.855456882   4.020854765
Fe       7.443173762   7.005896446   5.997288688
Fe       9.138963946   4.706752993   5.936291640
N        7.448161233   3.511387793   7.501382035
H        8.101536416   3.973465162   8.155484248
H        6.795003954   3.049303549   8.155734996
End final coordinates

     Writing output data file Fe_NH2_paper_480c_ESM_pn5.save/

     General routines

     Parallel routines

   This run was terminated on:  11: 6: 6  18Jun2022

   JOB DONE.