     Program PWSCF v.6.7MaX starts on  8Jul2022 at 17:21:46

     K-points division:     npool     =       8
     R & G space division:  proc/nbgrp/npool/nimage =      32
     Waiting for input...
     Reading input from standard input
Warning: card &CELL ignored
Warning: card / ignored

     Current dimensions of program PWSCF are:
     Max number of different atomic species (ntypx) = 10
     Max number of k-points (npk) =  40000
     Max angular momentum in pseudopotentials (lmaxx) =  3
     file Fe.pbe-spn-kjpaw_psl.0.2.1.UPF: wavefunction(s)  3D renormalized

     IMPORTANT: XC functional enforced from input :
     Exchange-correlation= PBE
                           (   1   4   3   4   0   0   0)
     Any further DFT definition will be discarded
     Please, verify this is what you really want

     Parameters for Dispersion (Grimme-D2) Correction:
       atom      VdW radius       C_6

        Fe         2.952        374.666

     bravais-lattice index     =            0
     lattice parameter (alat)  =      18.7640  a.u.
     unit-cell volume          =   16360.3161 (a.u.)^3
     number of atoms/cell      =           64
     number of atomic types    =            1
     number of electrons       =      1024.00
     number of Kohn-Sham states=          614
     kinetic-energy cutoff     =      60.0000  Ry
     charge density cutoff     =     480.0000  Ry
     scf convergence threshold =      1.0E-08
     mixing beta               =       0.2000
     number of iterations used =           10  local-TF  mixing
     energy convergence thresh.=      7.3E-07
     force convergence thresh. =      3.9E-04
     Exchange-correlation= PBE
                           (   1   4   3   4   0   0   0)
     nstep                     =           50

     Effective Screening Medium Method
     Boundary Conditions: Metal-Slab-Metal
     field strength                   =     0.00 Ry/a.u.
     grid points for fit at edges     =        4

     celldm(1)=  18.764036  celldm(2)=   0.000000  celldm(3)=   0.000000
     celldm(4)=   0.000000  celldm(5)=   0.000000  celldm(6)=   0.000000

     crystal axes: (cart. coord. in units of alat)
               a(1) = (   1.000000   0.000000   0.000000 )
               a(2) = (   0.333330   0.942807   0.000000 )
               a(3) = (   0.000000   0.000000   2.626577 )

     reciprocal axes: (cart. coord. in units 2 pi/alat)
               b(1) = (  1.000000 -0.353551  0.000000 )
               b(2) = (  0.000000  1.060663  0.000000 )
               b(3) = (  0.000000  0.000000  0.380724 )

     PseudoPot. # 1 for Fe read from file:
     ../SSSP/Fe.pbe-spn-kjpaw_psl.0.2.1.UPF
     MD5 check sum: e86618425769142926afa95317d90200
     Pseudo is Projector augmented-wave + core cor, Zval = 16.0
     Generated using "atomic" code by A. Dal Corso  v.5.0.99 svn rev. 10869
     Shape of augmentation charge: PSQ
     Using radial grid of 1191 points,  6 beta functions with:
                l(1) =   0
                l(2) =   0
                l(3) =   1
                l(4) =   1
                l(5) =   2
                l(6) =   2
     Q(r) pseudized with 0 coefficients

     atomic species   valence    mass     pseudopotential
        Fe            16.00    55.84500     Fe( 1.00)

     Starting magnetic structure
     atomic species   magnetization
        Fe           0.100

     No symmetry found

   Cartesian axes

     site n.     atom                  positions (alat units)
         1           Fe  tau(   1) = (   0.1666663   0.1178509   0.0000000  )
         2           Fe  tau(   2) = (   0.0000000   0.0000000   0.2041376  )
         3           Fe  tau(   3) = (   0.4999989   0.3535526   0.0000000  )
         4           Fe  tau(   4) = (   0.3333326   0.2357017   0.2041376  )
         5           Fe  tau(   5) = (   0.1666583   0.1178604   0.4056786  )
         6           Fe  tau(   6) = (   0.3333372   0.9428321   0.6050000  )
         7           Fe  tau(   7) = (   0.5000109   0.3535846   0.4056440  )
         8           Fe  tau(   8) = (   0.3333816   0.2357328   0.6050372  )
         9           Fe  tau(   9) = (   0.2499989   0.3535526   0.0000000  )
        10           Fe  tau(  10) = (   0.4166663   0.1178509   0.0000000  )
        11           Fe  tau(  11) = (   0.0833326   0.2357017   0.2041376  )
        12           Fe  tau(  12) = (   0.2500000   0.0000000   0.2041376  )
        13           Fe  tau(  13) = (   0.2500109   0.3535587   0.4056671  )
        14           Fe  tau(  14) = (   0.4166703   0.1178684   0.4056526  )
        15           Fe  tau(  15) = (   0.0833638   0.2357119   0.6050805  )
        16           Fe  tau(  16) = (   0.2500018   0.0000404   0.6050522  )
        17           Fe  tau(  17) = (   0.6666663   0.1178509   0.0000000  )
        18           Fe  tau(  18) = (   0.5000000   0.0000000   0.2041376  )
        19           Fe  tau(  19) = (   0.9999989   0.3535526   0.0000000  )
        20           Fe  tau(  20) = (   0.8333326   0.2357017   0.2041376  )
        21           Fe  tau(  21) = (   0.6667122   0.1178260   0.4056586  )
        22           Fe  tau(  22) = (   0.5000073   0.0000370   0.6049980  )
        23           Fe  tau(  23) = (   1.0000314   0.3535184   0.4056587  )
        24           Fe  tau(  24) = (   0.8333707   0.2356879   0.6050877  )
        25           Fe  tau(  25) = (   0.7499989   0.3535526   0.0000000  )
        26           Fe  tau(  26) = (   0.9166663   0.1178509   0.0000000  )
        27           Fe  tau(  27) = (   0.5833326   0.2357017   0.2041376  )
        28           Fe  tau(  28) = (   0.7500000   0.0000000   0.2041376  )
        29           Fe  tau(  29) = (   0.7500326   0.3535313   0.4056576  )
        30           Fe  tau(  30) = (   0.9166854   0.1178493   0.4056660  )
        31           Fe  tau(  31) = (   0.5833860   0.2357360   0.6049709  )
        32           Fe  tau(  32) = (   1.0833472   0.9428051   0.6050798  )
        33           Fe  tau(  33) = (   0.3333315   0.5892543   0.0000000  )
        34           Fe  tau(  34) = (   0.1666652   0.4714034   0.2041376  )
        35           Fe  tau(  35) = (   0.6666640   0.8249560   0.0000000  )
        36           Fe  tau(  36) = (   0.4999978   0.7071052   0.2041376  )
        37           Fe  tau(  37) = (   0.3333266   0.5892990   0.4056671  )
        38           Fe  tau(  38) = (   1.1666657   0.4714322   0.6050008  )
        39           Fe  tau(  39) = (   0.6666453   0.8249933   0.4056672  )
        40           Fe  tau(  40) = (   0.4999876   0.7071611   0.6050451  )
        41           Fe  tau(  41) = (   0.4166640   0.8249560   0.0000000  )
        42           Fe  tau(  42) = (   0.5833315   0.5892543   0.0000000  )
        43           Fe  tau(  43) = (   0.2499978   0.7071052   0.2041376  )
        44           Fe  tau(  44) = (   0.4166652   0.4714034   0.2041376  )
        45           Fe  tau(  45) = (   0.4166550   0.8249925   0.4056524  )
        46           Fe  tau(  46) = (   0.5833196   0.5892971   0.4056558  )
        47           Fe  tau(  47) = (   1.2499986   0.7071383   0.6050548  )
        48           Fe  tau(  48) = (   0.4166930   0.4714566   0.6050379  )
        49           Fe  tau(  49) = (   0.8333315   0.5892543   0.0000000  )
        50           Fe  tau(  50) = (   0.6666652   0.4714034   0.2041376  )
        51           Fe  tau(  51) = (   1.1666640   0.8249560   0.0000000  )
        52           Fe  tau(  52) = (   0.9999978   0.7071052   0.2041376  )
        53           Fe  tau(  53) = (   0.8333221   0.5892703   0.4056445  )
        54           Fe  tau(  54) = (   0.6666804   0.4714241   0.6049899  )
        55           Fe  tau(  55) = (   1.1666815   0.8249821   0.4056794  )
        56           Fe  tau(  56) = (   0.9999921   0.7070927   0.6050336  )
        57           Fe  tau(  57) = (   0.9166640   0.8249560   0.0000000  )
        58           Fe  tau(  58) = (   1.0833315   0.5892543   0.0000000  )
        59           Fe  tau(  59) = (   0.7499978   0.7071052   0.2041376  )
        60           Fe  tau(  60) = (   0.9166652   0.4714034   0.2041376  )
        61           Fe  tau(  61) = (   0.9166769   0.8249636   0.4056666  )
        62           Fe  tau(  62) = (   1.0833382   0.5892719   0.4056532  )
        63           Fe  tau(  63) = (   0.7499785   0.7071230   0.6050363  )
        64           Fe  tau(  64) = (   0.9166542   0.4713900   0.6049733  )

     number of k points=    10  Methfessel-Paxton smearing, width (Ry)=  0.0100
                       cart. coord. in units 2pi/alat
        k(    1) = (   0.0000000   0.0000000   0.0000000), wk =   0.0625000
        k(    2) = (   0.0000000   0.2651656   0.0000000), wk =   0.1250000
        k(    3) = (   0.0000000  -0.5303313   0.0000000), wk =   0.0625000
        k(    4) = (   0.2500000  -0.0883878   0.0000000), wk =   0.1250000
        k(    5) = (   0.2500000   0.1767779   0.0000000), wk =   0.1250000
        k(    6) = (   0.2500000  -0.6187190   0.0000000), wk =   0.1250000
        k(    7) = (   0.2500000  -0.3535534   0.0000000), wk =   0.1250000
        k(    8) = (  -0.5000000   0.1767755   0.0000000), wk =   0.0625000
        k(    9) = (  -0.5000000   0.4419412   0.0000000), wk =   0.1250000
        k(   10) = (  -0.5000000  -0.3535558   0.0000000), wk =   0.0625000

     Check: negative core charge=   -0.000039
     Generating pointlists ...
     new r_m :   0.1015 (alat units)  1.9048 (a.u.) for type    1

     Initial potential from superposition of free atoms

     starting charge 1023.97194, renormalised to 1024.00000

     negative rho (up, down):  1.364E-02 1.116E-02
     Starting wfcs are  832 randomized atomic wfcs
     Checking if some PAW data can be deallocated...

     Self-consistent Calculation

     iteration #  1     ecut=    60.00 Ry     beta= 0.20
     Davidson diagonalization with overlap
     ethr =  1.00E-04,  avg # of iterations = 18.1

     negative rho (up, down):  6.951E-03 5.600E-03

     total energy              =  -21071.88466761 Ry
     estimated scf accuracy    <      43.91300050 Ry

     total magnetization       =   134.31 Bohr mag/cell
     absolute magnetization    =   134.65 Bohr mag/cell

[...]

     iteration # 30     ecut=    60.00 Ry     beta= 0.20
     Davidson diagonalization with overlap
     c_bands:  1 eigenvalues not converged
     ethr =  7.92E-10,  avg # of iterations = 12.8

[...]

     iteration # 33     ecut=    60.00 Ry     beta= 0.20
     Davidson diagonalization with overlap
     c_bands:  1 eigenvalues not converged
     ethr =  3.12E-10,  avg # of iterations =  4.5

[...]

     total energy              =  -21072.22141853 Ry
     estimated scf accuracy    <       0.00000003 Ry

[...]

     iteration # 46     ecut=    60.00 Ry     beta= 0.20
     Davidson diagonalization with overlap
     ethr =  2.76E-12,  avg # of iterations =  3.9

[...]

     Magnetic moment per site:
     atom:    1    charge:   14.2696    magn:    2.6664    constr:    0.0000
     atom:    2    charge:   14.3437    magn:    2.4379    constr:    0.0000
     atom:    3    charge:   14.2695    magn:    2.6664    constr:    0.0000
[...]
   -89.5330 -89.5330 -89.5233 -89.5232 -89.5232 -89.5232 -89.5232 -89.5232
   -89.5210 -89.5210 -89.5210 -89.5210 -89.4994 -89.4994 -89.4994 -89.4993
   -89.4881 -89.4881 -89.4875 -89.4875 -89.4849 -89.4849 -89.4846 -89.4846
   -89.4656 -89.4656 -89.4655 -89.4655 -89.4655 -89.4655 -89.4655 -89.4654
   -89.4630 -89.4630 -89.4630 -89.4630 -89.4627 -89.4627 -89.4627 -89.4627
   -89.4437 -89.4437 -89.4434 -89.4434 -89.4411 -89.4411 -89.4409 -89.4409
   -55.8346 -55.8346 -55.8345 -55.8345 -55.8250 -55.8249 -55.8249 -55.8249
   -55.8231 -55.8230 -55.8188 -55.8187 -55.8165 -55.8165 -55.8098 -55.8098
   -55.8097 -55.8097 -55.8015 -55.8014 -55.8014 -55.8014 -55.7933 -55.7933
   -55.7822 -55.7822 -55.7808 -55.7808 -55.7761 -55.7761 -55.7578 -55.7578
   -55.7537 -55.7537 -55.7453 -55.7453 -55.7453 -55.7452 -55.7435 -55.7435
   -55.7435 -55.7435 -55.7364 -55.7364 -55.7364 -55.7364 -55.7363 -55.7363
   -55.7347 -55.7346 -55.7309 -55.7309 -55.7268 -55.7267 -55.7251 -55.7251
   -55.7225 -55.7225 -55.7207 -55.7207 -55.7207 -55.7206 -55.6842 -55.6842
   -55.6732 -55.6732 -55.6732 -55.6732 -55.6715 -55.6714 -55.6616 -55.6616
   -55.6613 -55.6612 -55.6441 -55.6441 -55.6256 -55.6256 -55.6256 -55.6256
   -55.6248 -55.6248 -55.6244 -55.6244 -55.6148 -55.6148 -55.6148 -55.6148
   -55.6129 -55.6129 -55.6129 -55.6129 -55.5973 -55.5973 -55.5962 -55.5962
   -55.5895 -55.5895 -55.5895 -55.5895 -55.5834 -55.5834 -55.5832 -55.5832
   -55.5832 -55.5832 -55.5719 -55.5718 -55.5718 -55.5718 -55.5688 -55.5687
   -55.5603 -55.5603 -55.5559 -55.5559 -55.5475 -55.5475 -55.5458 -55.5458
   -55.5458 -55.5458 -55.5388 -55.5388 -55.5319 -55.5319 -55.5298 -55.5298
   -55.5238 -55.5238 -55.5219 -55.5218 -55.5172 -55.5172 -55.5172 -55.5172
   -55.5150 -55.5150 -55.5144 -55.5144 -55.5144 -55.5143 -55.5099 -55.5099
   -55.5099 -55.5099 -55.5081 -55.5081 -55.5012 -55.5011 -55.4998 -55.4998
   -55.4972 -55.4972 -55.4955 -55.4955 -55.4931 -55.4931 -55.4914 -55.4914
   -55.4914 -55.4914 -55.4913 -55.4913 -55.4897 -55.4897 -55.4856 -55.4856
   -55.4856 -55.4855 -55.4804 -55.4804 -55.4788 -55.4788 -55.4788 -55.4788
   -55.4784 -55.4784 -55.4784 -55.4784 -55.4687 -55.4687 -55.4638 -55.4638
   -55.4638 -55.4638 -55.4624 -55.4624 -55.4591 -55.4591 -55.4580 -55.4580
   -11.5387 -11.5386 -10.9534 -10.9534 -10.2458 -10.2457  -9.7023  -9.7023
    -8.9503  -8.9503  -8.9502  -8.9502  -8.5416  -8.5414  -8.1011  -8.1011
    -8.1010  -8.1010  -8.1005  -8.1005  -8.0058  -8.0058  -7.9671  -7.9671
    -7.9670  -7.9670  -7.5406  -7.5404  -7.5389  -7.5388  -7.5388  -7.5388
    -7.3296  -7.3296  -7.0705  -7.0705  -7.0364  -7.0364  -7.0363  -7.0363
    -6.9785  -6.9784  -6.9349  -6.9348  -6.9348  -6.9347  -6.7764  -6.7763
    -6.7654  -6.7652  -6.7460  -6.7459  -6.5012  -6.5011  -6.4843  -6.4843
    -6.4842  -6.4842  -6.2652  -6.2650  -6.2144  -6.2143  -6.1636  -6.1635
    -6.0571  -6.0570  -5.9761  -5.9761  -5.9759  -5.9759  -5.9673  -5.9671
    -5.9500  -5.9498  -5.9415  -5.9413  -5.8424  -5.8424  -5.8423  -5.8423
    -5.8370  -5.8369  -5.8369  -5.8368  -5.8305  -5.8304  -5.8304  -5.8304
    -5.6179  -5.6179  -5.6099  -5.6098  -5.4781  -5.4781  -5.4780  -5.4780
    -5.4640  -5.4639  -5.4146  -5.4145  -5.4145  -5.4144  -5.4043  -5.4041
    -5.3990  -5.3989  -5.3778  -5.3777  -5.3776  -5.3775  -5.3440  -5.3440
    -5.3440  -5.3438  -5.3408  -5.3408  -5.3408  -5.3407  -5.3346  -5.3342
    -5.2916  -5.2916  -5.2915  -5.2914  -5.2314  -5.2314  -5.2313  -5.2312
    -5.2310  -5.2310  -5.2310  -5.2309  -5.2273  -5.2271  -5.2120  -5.2117
    -5.1540  -5.1539  -5.0208  -5.0205  -4.9587  -4.9587  -4.9587  -4.9586
    -4.9394  -4.9393  -4.8994  -4.8993  -4.8993  -4.8993  -4.7930  -4.7929
    -4.7767  -4.7766  -4.7766  -4.7765  -4.7704  -4.7703  -4.7212  -4.7210
    -4.7108  -4.7105  -4.6625  -4.6623  -4.5281  -4.5281  -4.5156  -4.5155
    -4.4475  -4.4474  -4.4422  -4.4421  -4.4203  -4.4202  -4.4202  -4.4201
    -4.4088  -4.4085  -4.3958  -4.3957  -4.3230  -4.3229  -4.3229  -4.3229
    -4.2989  -4.2985  -4.0480  -4.0480  -3.9752  -3.9748  -3.9327  -3.9324
    -3.8642  -3.8641  -3.6831  -3.6829  -3.6612  -3.6610  -3.6135  -3.6134
    -3.5407  -3.5406  -3.5025  -3.5025  -3.5024  -3.5023  -3.4243  -3.4243
    -3.4241  -3.4238  -3.3811  -3.3810  -3.3688  -3.3687  -3.2670  -3.2670
    -3.2638  -3.2638  -3.2637  -3.2636  -3.1642  -3.1642  -3.1642  -3.1641
[...]
    -2.9588  -2.9587  -2.9167  -2.9167  -2.8625  -2.8624  -2.8059  -2.8059
    -2.7253  -2.7252  -2.7214  -2.7214  -2.7214  -2.7213  -2.7189  -2.7187
    -2.7015  -2.7015  -2.6753  -2.6752  -2.6646  -2.6645  -2.6645  -2.6644
    -2.6584  -2.6583  -2.6583  -2.6583  -2.6327  -2.6324  -2.5846  -2.5846
    -2.5845  -2.5844  -2.5833  -2.5831  -2.5597  -2.5596  -2.5589  -2.5586
    -2.5532  -2.5530  -2.5222  -2.5222  -2.5093  -2.5093  -2.4881  -2.4881
    -2.4881  -2.4881  -2.4753  -2.4752  -2.4735  -2.4734  -2.4734  -2.4734
    -2.4326  -2.4326  -2.3672  -2.3672  -2.3512  -2.3511  -2.3321  -2.3319
    -2.3208  -2.3207  -2.2871  -2.2871  -2.2871  -2.2870  -2.2856  -2.2856
    -2.2855  -2.2855  -2.2712  -2.2711  -2.2680  -2.2680  -2.2680  -2.2680
    -2.2607  -2.2605  -2.2137  -2.2137  -2.2064  -2.2064  -2.2064  -2.2063
    -2.1920  -2.1919  -2.1834  -2.1833  -2.1832  -2.1832  -2.0941  -2.0939
    -2.0892  -2.0892  -2.0891  -2.0891  -1.8946  -1.8944  -1.8772  -1.8772
    -1.6640  -1.6639  -1.6639  -1.6639  -1.5936  -1.5935  -1.5934  -1.5933
    -1.5753  -1.5753  -1.5753  -1.5753  -1.5552  -1.5552

     the Fermi energy is    -4.4328 ev

!    total energy              =  -21072.22144546 Ry

     total all-electron energy =   -162915.199718 Ry
     estimated scf accuracy    <          7.1E-09 Ry
     smearing contrib. (-TS)   =      -0.00015409 Ry
     internal energy E=F+TS    =  -21072.22129137 Ry

     The total energy is F=E-TS. E is the sum of the following terms:
     one-electron contribution = -737322.18602777 Ry
     hartree contribution      =  368488.67246453 Ry
     xc contribution           =   -2228.22253944 Ry
     ewald contribution        =  354864.31004418 Ry
     Dispersion Correction     =      -1.37032025 Ry
     one-center paw contrib.   =   -4873.42491262 Ry

     total magnetization       =   163.01 Bohr mag/cell
     absolute magnetization    =   169.31 Bohr mag/cell

     convergence has been achieved in  46 iterations

     negative rho (up, down):  1.181E-02 1.655E-02

     Forces acting on atoms (cartesian axes, Ry/au):

     atom    1 type  1   force =     0.00000610    0.00000832    0.00932678
     atom    2 type  1   force =    -0.00000289    0.00001394   -0.00925396
     atom    3 type  1   force =     0.00000449    0.00000696    0.00942230
     atom    4 type  1   force =    -0.00003093   -0.00000615   -0.00924117
     atom    5 type  1   force =     0.00001137   -0.00000600    0.00005150
     atom    6 type  1   force =     0.00000603   -0.00001206   -0.00030389
     atom    7 type  1   force =    -0.00001743   -0.00004088    0.00007330
     atom    8 type  1   force =    -0.00001180    0.00000704   -0.00030958
     atom    9 type  1   force =    -0.00001560    0.00002724    0.00939371
     atom   10 type  1   force =     0.00001806   -0.00002290    0.00939120
     atom   11 type  1   force =     0.00002201   -0.00008152   -0.00923606
     atom   12 type  1   force =    -0.00007261    0.00005101   -0.00922195
     atom   13 type  1   force =    -0.00000508   -0.00000229    0.00005311
     atom   14 type  1   force =     0.00000035    0.00000138    0.00006651
     atom   15 type  1   force =     0.00002104    0.00001130   -0.00034446
     atom   16 type  1   force =     0.00002565    0.00001247   -0.00030257
     atom   17 type  1   force =     0.00001458   -0.00000899    0.00937461
     atom   18 type  1   force =     0.00000818    0.00000053   -0.00924018
     atom   19 type  1   force =     0.00000498   -0.00001640    0.00937415
     atom   20 type  1   force =     0.00008899   -0.00011347   -0.00921520
     atom   21 type  1   force =    -0.00002185    0.00000804    0.00007227
     atom   22 type  1   force =    -0.00000138   -0.00002673   -0.00031672
     atom   23 type  1   force =    -0.00000547    0.00001847    0.00007299
     atom   24 type  1   force =     0.00000510   -0.00002079   -0.00035246
     atom   25 type  1   force =     0.00000841   -0.00000893    0.00942877
     atom   26 type  1   force =     0.00000414   -0.00000545    0.00932308
     atom   27 type  1   force =     0.00003876   -0.00007212   -0.00921776
     atom   28 type  1   force =     0.00008079   -0.00004162   -0.00923543
     atom   29 type  1   force =     0.00000005   -0.00000675    0.00006357
     atom   30 type  1   force =     0.00000743   -0.00001581    0.00005233
     atom   31 type  1   force =    -0.00002128   -0.00003376   -0.00026125
     atom   32 type  1   force =    -0.00002900   -0.00001849   -0.00034241
     atom   33 type  1   force =    -0.00000369    0.00001472    0.00937785
     atom   34 type  1   force =     0.00000850    0.00000031   -0.00924146
     atom   35 type  1   force =    -0.00001016    0.00000968    0.00937775
     atom   36 type  1   force =    -0.00008494    0.00012974   -0.00922126
     atom   37 type  1   force =    -0.00000922    0.00000261    0.00006259
     atom   38 type  1   force =     0.00001865   -0.00001382   -0.00032036
     atom   39 type  1   force =    -0.00000012    0.00000526    0.00006351
     atom   40 type  1   force =    -0.00001088    0.00001012   -0.00030583
     atom   41 type  1   force =    -0.00000355    0.00000673    0.00931587
     atom   42 type  1   force =    -0.00000689    0.00001369    0.00943166
     atom   43 type  1   force =    -0.00001431    0.00009131   -0.00922234
     atom   44 type  1   force =    -0.00006552    0.00007257   -0.00922309
     atom   45 type  1   force =     0.00000022   -0.00000323    0.00007083
     atom   46 type  1   force =    -0.00000781    0.00000469    0.00006618
     atom   47 type  1   force =    -0.00002844   -0.00002177   -0.00030419
     atom   48 type  1   force =    -0.00002507   -0.00001367   -0.00033970
     atom   49 type  1   force =    -0.00000635   -0.00000195    0.00942337
     atom   50 type  1   force =     0.00000700    0.00000178   -0.00921518
     atom   51 type  1   force =    -0.00000645   -0.00000216    0.00932678
     atom   52 type  1   force =     0.00002818    0.00003386   -0.00924109
     atom   53 type  1   force =     0.00003879   -0.00000044    0.00007082
     atom   54 type  1   force =    -0.00000899    0.00000159   -0.00035500
     atom   55 type  1   force =    -0.00000319   -0.00001539    0.00005230
     atom   56 type  1   force =    -0.00001388    0.00001025   -0.00030914
     atom   57 type  1   force =    -0.00001841    0.00002349    0.00939304
     atom   58 type  1   force =     0.00001772   -0.00002417    0.00938990
     atom   59 type  1   force =    -0.00003704    0.00009354   -0.00922116
     atom   60 type  1   force =     0.00006749   -0.00005341   -0.00921822
     atom   61 type  1   force =     0.00000045    0.00000365    0.00005347
     atom   62 type  1   force =    -0.00000417   -0.00000421    0.00006389
     atom   63 type  1   force =     0.00001182    0.00001562   -0.00033951
     atom   64 type  1   force =     0.00002907    0.00000343   -0.00026520

     Total force =     0.001304     Total SCF correction =     0.000162
     SCF correction compared to forces is large: reduce conv_thr to get better values

     BFGS Geometry Optimization
     Energy error            =      0.0E+00
     Gradient error          =      3.5E-04

     bfgs converged in   1 scf cycles and   0 bfgs steps
     (criteria: energy <  7.3E-07 Ry, force <  3.9E-04 Ry/Bohr)

     End of BFGS Geometry Optimization

     Final energy   =  -21072.2214454592 Ry
Begin final coordinates

ATOMIC_POSITIONS (angstrom)
Fe            1.6549129530        1.1702001330        0.0000000000    0   0   0
Fe            0.0000000000        0.0000000000        2.0269842320    0   0   0
Fe            4.9647388580        3.5106003990        0.0000000000    0   0   0
Fe            3.3098259060        2.3404002660        2.0269842320    0   0   0
Fe            1.6548331340        1.1702945770        4.0281854820
Fe            3.3098718440        9.3618511040        6.0073479780
Fe            4.9648582600        3.5109180290        4.0278421470
Fe            3.3103130120        2.3407084850        6.0077165100
Fe            2.4823638580        3.5106003990        0.0000000000    0   0   0
Fe            4.1372879530        1.1702001330        0.0000000000    0   0   0
Fe            0.8274509060        2.3404002660        2.0269842320    0   0   0
Fe            2.4823750000        0.0000000000        2.0269842320    0   0   0
Fe            2.4824832400        3.5106611570        4.0280711710
Fe            4.1373274610        1.1703745590        4.0279276460
Fe            0.8277604040        2.3405008600        6.0081468940
Fe            2.4823932550        0.0004016000        6.0078653900
Fe            6.6196629530        1.1702001330        0.0000000000    0   0   0
Fe            4.9647500000        0.0000000000        2.0269842320    0   0   0
Fe            9.9294888580        3.5106003990        0.0000000000    0   0   0
Fe            8.2745759060        2.3404002660        2.0269842320    0   0   0
Fe            6.6201190670        1.1699533980        4.0279873420
Fe            4.9648220250        0.0003675990        6.0073274060
Fe            9.9298119420        3.5102605710        4.0279881530
Fe            8.2749545270        2.3402634790        6.0082184760
Fe            7.4471138580        3.5106003990        0.0000000000    0   0   0
Fe            9.1020379530        1.1702001330        0.0000000000    0   0   0
Fe            5.7922009060        2.3404002660        2.0269842320    0   0   0
Fe            7.4471250000        0.0000000000        2.0269842320    0   0   0
Fe            7.4474491130        3.5103889870        4.0279771040
Fe            9.1022273770        1.1701844920        4.0280601700
Fe            5.7927312560        2.3407408280        6.0070589480
Fe           10.7570958870        9.3615828630        6.0081400900
Fe            3.3098147640        5.8510006640        0.0000000000    0   0   0
Fe            1.6549018110        4.6808005310        2.0269842320    0   0   0
Fe            6.6196406700        8.1914009300        0.0000000000    0   0   0
Fe            4.9647277170        7.0212007970        2.0269842320    0   0   0
Fe            3.3097661060        5.8514448960        4.0280716740
Fe           11.5844070340        4.6810857810        6.0073551270
Fe            6.6194544960        8.1917713470        4.0280720900
Fe            4.9646265050        7.0217562550        6.0077949010
Fe            4.1372656700        8.1914009300        0.0000000000    0   0   0
Fe            5.7921897640        5.8510006640        0.0000000000    0   0   0
Fe            2.4823527170        7.0212007970        2.0269842320    0   0   0
Fe            4.1372768110        4.6808005310        2.0269842320    0   0   0
Fe            4.1371754650        8.1917631220        4.0279257400
Fe            5.7920724260        5.8514254830        4.0279588540
Fe           12.4118606070        7.0215300190        6.0078919860
Fe            4.1375528570        4.6813286290        6.0077236710
Fe            8.2745647640        5.8510006640        0.0000000000    0   0   0
Fe            6.6196518110        4.6808005310        2.0269842320    0   0   0
Fe           11.5843906700        8.1914009300        0.0000000000    0   0   0
Fe            9.9294777170        7.0212007970        2.0269842320    0   0   0
Fe            8.2744713180        5.8511591570        4.0278469000
Fe            6.6198034550        4.6810057990        6.0072475640
Fe           11.5845641640        8.1916597190        4.0281938640
Fe            9.9294215430        7.0210770570        6.0076816220
Fe            9.1020156700        8.1914009300        0.0000000000    0   0   0
Fe           10.7569397640        5.8510006640        0.0000000000    0   0   0
Fe            7.4471027170        7.0212007970        2.0269842320    0   0   0
Fe            9.1020268110        4.6808005310        2.0269842320    0   0   0
Fe            9.1021430390        8.1914761000        4.0280665610
Fe           10.7570069640        5.8511757280        4.0279334520
Fe            7.4469112800        7.0213774910        6.0077080420
Fe            9.1019174990        4.6806673830        6.0070823510
End final coordinates

     Writing output data file ./Fe_paper_480c_ESM_std.save/

     General routines

     Parallel routines

   This run was terminated on:  18:37:37   8Jul2022

   JOB DONE.