     Program PWSCF v.6.4.1 starts on  4Jun2022 at 21:11:10

     K-points division:     npool     =       8
     R & G space division:  proc/nbgrp/npool/nimage =      20
     Waiting for input...
     Reading input from standard input
Warning: card &CELL ignored
Warning: card / ignored

     Current dimensions of program PWSCF are:
     Max number of different atomic species (ntypx) = 10
     Max number of k-points (npk) =  40000
     Max angular momentum in pseudopotentials (lmaxx) =  3

     IMPORTANT: XC functional enforced from input :
     Exchange-correlation      = PBE ( 1  4  3  4 0 0)
     Any further DFT definition will be discarded
     Please, verify this is what you really want

               file Fe.pbe-spn-kjpaw_psl.0.2.1.UPF: wavefunction(s)  3D renormalized

     Parameters for Dispersion (Grimme-D2) Correction:
       atom      VdW radius       C_6

        Fe         2.952        374.666
        H          1.892          4.857
        N          2.640         42.670

     bravais-lattice index     =            0
     lattice parameter (alat)  =      18.7640  a.u.
     unit-cell volume          =   16360.3167 (a.u.)^3
     number of atoms/cell      =           67
     number of atomic types    =            3
     number of electrons       =      1031.00
     number of Kohn-Sham states=          619
     kinetic-energy cutoff     =      60.0000  Ry
     charge density cutoff     =     480.0000  Ry
     convergence threshold     =      1.0E-08
     mixing beta               =       0.2000
     number of iterations used =           10  local-TF  mixing
     Exchange-correlation      = PBE ( 1  4  3  4 0 0)
     nstep                     =           50

     celldm(1)=  18.764036  celldm(2)=   0.000000  celldm(3)=   0.000000
     celldm(4)=   0.000000  celldm(5)=   0.000000  celldm(6)=   0.000000

     crystal axes: (cart. coord. in units of alat)
               a(1) = (   1.000000   0.000000   0.000000 )
               a(2) = (   0.333330   0.942807   0.000000 )
               a(3) = (   0.000000   0.000000   2.626577 )

     reciprocal axes: (cart. coord. in units 2 pi/alat)
               b(1) = (  1.000000 -0.353551  0.000000 )
               b(2) = (  0.000000  1.060662  0.000000 )
               b(3) = (  0.000000  0.000000  0.380724 )

     PseudoPot. # 1 for Fe read from file:
     ../../SSSP/Fe.pbe-spn-kjpaw_psl.0.2.1.UPF
     MD5 check sum: e86618425769142926afa95317d90200
     Pseudo is Projector augmented-wave + core cor, Zval = 16.0
     Generated using "atomic" code by A. Dal Corso v.5.0.99 svn rev. 10869
     Shape of augmentation charge: PSQ
     Using radial grid of 1191 points,  6 beta functions with:
                l(1) =   0
                l(2) =   0
                l(3) =   1
                l(4) =   1
                l(5) =   2
                l(6) =   2
     Q(r) pseudized with 0 coefficients

     PseudoPot. # 2 for H  read from file:
     ../../SSSP/H.pbe-rrkjus_psl.1.0.0.UPF
     MD5 check sum: f52b6d4d1c606e5624b1dc7b2218f220
     Pseudo is Ultrasoft, Zval =  1.0
     Generated using "atomic" code by A. Dal Corso v.5.1
     Using radial grid of  929 points,  2 beta functions with:
                l(1) =   0
                l(2) =   0
     Q(r) pseudized with 0 coefficients

     PseudoPot. # 3 for N  read from file:
     ../../SSSP/N.pbe-n-radius_5.UPF
     MD5 check sum: 16739722b17309cd8fe442a2ace49922
     Pseudo is Ultrasoft + core correction, Zval =  5.0
     Generated using "atomic" code by A. Dal Corso v.5.1
     Using radial grid of 1085 points,  4 beta functions with:
                l(1) =   0
                l(2) =   0
                l(3) =   1
                l(4) =   1
     Q(r) pseudized with 0 coefficients

     atomic species   valence    mass     pseudopotential
        Fe            16.00    55.84500     Fe( 1.00)
        H              1.00     1.00800     H ( 1.00)
        N              5.00    14.00700     N ( 1.00)

     Starting magnetic structure
     atomic species   magnetization
        Fe           0.100
        H            0.100
        N            0.100

     No symmetry found

   Cartesian axes

     site n.     atom                  positions (alat units)
         1           Fe  tau(   1) = (   0.1666663   0.1178509   0.0000000  )
         2           Fe  tau(   2) = (   0.0000000   0.0000000   0.2041376  )
         3           Fe  tau(   3) = (   0.4999989   0.3535526   0.0000000  )
         4           Fe  tau(   4) = (   0.3333326   0.2357017   0.2041376  )
         5           Fe  tau(   5) = (   0.1686570   0.1178361   0.4052985  )
         6           Fe  tau(   6) = (   0.3341358   0.9417664   0.6035990  )
         7           Fe  tau(   7) = (   0.5010430   0.3547508   0.4069156  )
         8           Fe  tau(   8) = (   0.3388211   0.2353710   0.6054253  )
         9           Fe  tau(   9) = (   0.2499989   0.3535526   0.0000000  )
        10           Fe  tau(  10) = (   0.4166663   0.1178509   0.0000000  )
        11           Fe  tau(  11) = (   0.0833326   0.2357017   0.2041376  )
        12           Fe  tau(  12) = (   0.2500000   0.0000000   0.2041376  )
        13           Fe  tau(  13) = (   0.2500012   0.3535905   0.4067842  )
        14           Fe  tau(  14) = (   0.4190288   0.1195738   0.4060351  )
        15           Fe  tau(  15) = (   0.0865029   0.2339483   0.6039407  )
        16           Fe  tau(  16) = (   0.2513002   0.0009626   0.6053752  )
        17           Fe  tau(  17) = (   0.6666663   0.1178509   0.0000000  )
        18           Fe  tau(  18) = (   0.5000000   0.0000000   0.2041376  )
        19           Fe  tau(  19) = (   0.9999989   0.3535526   0.0000000  )
        20           Fe  tau(  20) = (   0.8333326   0.2357017   0.2041376  )
        21           Fe  tau(  21) = (   0.6681070   0.1185056   0.4068920  )
        22           Fe  tau(  22) = (   0.5014987   0.0053781   0.6054539  )
        23           Fe  tau(  23) = (   0.9989796   0.3524590   0.4068887  )
        24           Fe  tau(  24) = (   0.8420520   0.2235134   0.6021217  )
        25           Fe  tau(  25) = (   0.7499989   0.3535526   0.0000000  )
        26           Fe  tau(  26) = (   0.9166663   0.1178509   0.0000000  )
        27           Fe  tau(  27) = (   0.5833326   0.2357017   0.2041376  )
        28           Fe  tau(  28) = (   0.7500000   0.0000000   0.2041376  )
        29           Fe  tau(  29) = (   0.7500236   0.3535939   0.4028008  )
        30           Fe  tau(  30) = (   0.9183951   0.1154738   0.4034655  )
        31           Fe  tau(  31) = (   0.5922890   0.2421038   0.6094174  )
        32           Fe  tau(  32) = (   1.0840349   0.9393380   0.6039418  )
        33           Fe  tau(  33) = (   0.3333315   0.5892543   0.0000000  )
        34           Fe  tau(  34) = (   0.1666652   0.4714034   0.2041376  )
        35           Fe  tau(  35) = (   0.6666640   0.8249560   0.0000000  )
        36           Fe  tau(  36) = (   0.4999977   0.7071052   0.2041376  )
        37           Fe  tau(  37) = (   0.3313717   0.5893360   0.4053031  )
        38           Fe  tau(  38) = (   1.1612429   0.4718510   0.6054455  )
        39           Fe  tau(  39) = (   0.6672999   0.8268818   0.4053013  )
        40           Fe  tau(  40) = (   0.4992366   0.7082722   0.6034780  )
        41           Fe  tau(  41) = (   0.4166640   0.8249560   0.0000000  )
        42           Fe  tau(  42) = (   0.5833315   0.5892543   0.0000000  )
        43           Fe  tau(  43) = (   1.2499977   0.7071052   0.2041376  )
        44           Fe  tau(  44) = (   0.4166652   0.4714034   0.2041376  )
        45           Fe  tau(  45) = (   0.4166665   0.8250173   0.4049699  )
        46           Fe  tau(  46) = (   0.5816472   0.5917017   0.4034350  )
        47           Fe  tau(  47) = (   1.2487477   0.7062702   0.6053654  )
        48           Fe  tau(  48) = (   0.4135322   0.4732989   0.6040109  )
        49           Fe  tau(  49) = (   0.8333314   0.5892543   0.0000000  )
        50           Fe  tau(  50) = (   0.6666652   0.4714034   0.2041376  )
        51           Fe  tau(  51) = (   1.1666640   0.8249560   0.0000000  )
        52           Fe  tau(  52) = (   0.9999977   0.7071052   0.2041376  )
        53           Fe  tau(  53) = (   0.8319285   0.5887257   0.4069179  )
        54           Fe  tau(  54) = (   0.6579955   0.4838139   0.6021141  )
        55           Fe  tau(  55) = (   1.1660742   0.8231260   0.4052964  )
        56           Fe  tau(  56) = (   0.9985899   0.7019248   0.6054131  )
        57           Fe  tau(  57) = (   0.9166640   0.8249560   0.0000000  )
        58           Fe  tau(  58) = (   1.0833314   0.5892543   0.0000000  )
        59           Fe  tau(  59) = (   0.7499977   0.7071052   0.2041376  )
        60           Fe  tau(  60) = (   0.9166652   0.4714034   0.2041376  )
        61           Fe  tau(  61) = (   0.9166921   0.8250249   0.4067847  )
        62           Fe  tau(  62) = (   1.0809967   0.5876498   0.4060352  )
        63           Fe  tau(  63) = (   0.7493592   0.7108084   0.6040097  )
        64           Fe  tau(  64) = (   0.9078333   0.4652128   0.6093978  )
        65           H   tau(  65) = (   0.7501937   0.3538470   0.8083119  )
        66           N   tau(  66) = (   0.7501811   0.3537892   0.7047560  )
        67           H   tau(  67) = (   0.4582305   0.8559343   0.6991287  )

     number of k points=    10  Methfessel-Paxton smearing, width (Ry)=  0.0100
                       cart. coord. in units 2pi/alat
        k(    1) = (   0.0000000   0.0000000   0.0000000), wk =   0.0625000
        k(    2) = (   0.0000000   0.2651656   0.0000000), wk =   0.1250000
        k(    3) = (   0.0000000  -0.5303312   0.0000000), wk =   0.0625000
        k(    4) = (   0.2500000  -0.0883877   0.0000000), wk =   0.1250000
        k(    5) = (   0.2500000   0.1767780   0.0000000), wk =   0.1250000
        k(    6) = (   0.2500000  -0.6187189   0.0000000), wk =   0.1250000
        k(    7) = (   0.2500000  -0.3535533   0.0000000), wk =   0.1250000
        k(    8) = (  -0.5000000   0.1767753   0.0000000), wk =   0.0625000
        k(    9) = (  -0.5000000   0.4419409   0.0000000), wk =   0.1250000
        k(   10) = (  -0.5000000  -0.3535559   0.0000000), wk =   0.0625000

     Check: negative core charge=   -0.000039

     Initial potential from superposition of free atoms

     starting charge 1030.97192, renormalised to 1031.00000

     negative rho (up, down):  2.447E-02 2.534E-03
     Starting wfcs are  838 randomized atomic wfcs
     Checking if some PAW data can be deallocated...

     Self-consistent Calculation

     iteration #  1     ecut=    60.00 Ry     beta= 0.20
     Davidson diagonalization with overlap
     ethr =  1.00E-04,  avg # of iterations = 10.7

     negative rho (up, down):  1.219E-02 4.101E-03

     total energy              =  -21094.90755018 Ry
     Harris-Foulkes estimate   =  -21095.38209211 Ry
     estimated scf accuracy    <      28.64776624 Ry

     total magnetization       =   134.35 Bohr mag/cell
     absolute magnetization    =   134.62 Bohr mag/cell

[...]

[...]
     atom:   59    charge:   12.5734    magn:    2.2012    constr:    0.0000
     atom:   60    charge:   12.5724    magn:    2.1918    constr:    0.0000
     atom:   61    charge:   12.5733    magn:    2.1843    constr:    0.0000
     atom:   62    charge:   12.5765    magn:    2.1322    constr:    0.0000
     atom:   63    charge:   12.5868    magn:    2.3230    constr:    0.0000
     atom:   64    charge:   12.5770    magn:    2.2378    constr:    0.0000
     atom:   65    charge:    0.4379    magn:    0.0070    constr:    0.0000
     atom:   66    charge:    1.3297    magn:   -0.0323    constr:    0.0000
     atom:   67    charge:    0.3540    magn:   -0.0203    constr:    0.0000

     End of self-consistent calculation

 ------ SPIN UP ------------

[...]

 ------ SPIN DOWN ----------

[...]

          k = 0.2500-0.3536 0.0000 (128397 PWs)   bands (ev):

[...]

          k =-0.5000-0.3536 0.0000 (128560 PWs)   bands (ev):

   -83.2543 -83.2527 -82.9078 -82.9068 -82.8601 -82.8564 -82.8372 -82.8317
   -82.8153 -82.8093 -82.7926 -82.7895 -82.7819 -82.7809 -82.7806 -82.7775
   -82.7703 -82.7683 -82.7657 -82.7621 -82.7595 -82.7585 -82.7579 -82.7552
   -82.7524 -82.7490 -82.7471 -82.7430 -82.7421 -82.7403 -82.7400 -82.7389
   -82.7387 -82.7363 -82.7362 -82.7202 -82.7189 -82.7166 -82.7162 -82.7098
   -82.7078 -82.6988 -82.6986 -82.6985 -82.6975 -82.6973 -82.6968 -82.6940
   -82.6904 -82.6829 -82.6776 -82.6768 -82.6765 -82.6764 -82.6761 -82.6752
   -82.6749 -82.6742 -82.6724 -82.6718 -82.6543 -82.6540 -82.6533 -82.6510
   -49.6890 -49.6738 -49.3464 -49.3414 -49.1957 -49.1791 -49.1395 -49.1388
   -49.1287 -49.1051 -49.0774 -49.0709 -49.0708 -49.0650 -49.0632 -49.0605
   -49.0590 -49.0574 -49.0524 -49.0500 -49.0467 -49.0460 -49.0454 -49.0423
   -49.0404 -49.0358 -49.0344 -49.0308 -49.0296 -49.0245 -49.0198 -49.0190
   -49.0166 -49.0144 -49.0139 -49.0099 -49.0049 -49.0017 -48.9994 -48.9990
   -48.9978 -48.9928 -48.9915 -48.9867 -48.9843 -48.9819 -48.9796 -48.9788
   -48.9723 -48.9657 -48.9650 -48.9594 -48.9576 -48.9568 -48.9545 -48.9515
   -48.9515 -48.9514 -48.9505 -48.9502 -48.9450 -48.9439 -48.9420 -48.9419
   -48.9403 -48.9403 -48.9334 -48.9313 -48.9271 -48.9236 -48.9199 -48.9177
   -48.9124 -48.9049 -48.9019 -48.9002 -48.8954 -48.8917 -48.8850 -48.8838
   -48.8820 -48.8816 -48.8734 -48.8720 -48.8686 -48.8631 -48.8612 -48.8610
   -48.8555 -48.8543 -48.8527 -48.8494 -48.8489 -48.8441 -48.8421 -48.8412
   -48.8409 -48.8383 -48.8348 -48.8341 -48.8327 -48.8311 -48.8233 -48.8226
   -48.8168 -48.8146 -48.8143 -48.8119 -48.8057 -48.8053 -48.8027 -48.8019
   -48.8006 -48.7997 -48.7982 -48.7966 -48.7956 -48.7936 -48.7921 -48.7878
   -48.7867 -48.7859 -48.7840 -48.7806 -48.7762 -48.7757 -48.7746 -48.7737
   -48.7683 -48.7681 -48.7675 -48.7634 -48.7619 -48.7610 -48.7591 -48.7538
   -48.7532 -48.7524 -48.7494 -48.7480 -48.7460 -48.7456 -48.7435 -48.7434
   -48.7426 -48.7414 -48.7385 -48.7376 -48.7364 -48.7359 -48.7354 -48.7342
   -48.7324 -48.7291 -48.7266 -48.7254 -48.7218 -48.7188 -48.7185 -48.7167
   -48.7156 -48.7136 -48.7133 -48.7126 -48.7116 -48.7106 -48.7104 -48.7095
   -48.7087 -48.7076 -48.7073 -48.7069 -48.7046 -48.7043 -48.7012 -48.7000
   -48.6975 -48.6959 -48.6959 -48.6949 -48.6943 -48.6889 -48.6884 -48.6881
   -48.6867 -48.6851 -48.6838 -48.6836 -48.6818 -48.6798 -48.6778 -48.6773
   -13.9327  -5.4486  -4.7719  -4.7383  -4.2250  -4.1974  -3.8005  -3.5029
    -3.0843  -2.9964  -2.6924  -2.5676  -2.5421  -2.1684  -2.1235  -2.0903
    -2.0548  -1.7002  -1.4992  -1.3281  -1.3191  -1.3066  -1.2870  -1.2753
    -1.2372  -1.2039  -1.1841  -1.1792  -1.1422  -1.1344  -0.9123  -0.7824
    -0.7590  -0.7509  -0.7490  -0.7096  -0.6522  -0.5565  -0.4621  -0.3006
    -0.2806  -0.2768  -0.2462  -0.2428  -0.2135  -0.1938  -0.1523  -0.1383
    -0.1346  -0.0775  -0.0365  -0.0083  -0.0014   0.0209   0.0429   0.0762
     0.1149   0.2587   0.2664   0.2872   0.2987   0.3096   0.3478   0.5195
     0.5518   0.5743   0.5873   0.6044   0.6164   0.6982   0.7195   0.7378
     0.7634   0.7818   0.8020   0.8130   0.8150   0.8244   0.8407   0.8416
     0.8594   0.8733   0.8773   0.9167   0.9208   0.9300   0.9322   0.9424
     0.9507   0.9686   0.9818   1.0279   1.0562   1.0732   1.1509   1.1584
     1.1672   1.2263   1.2716   1.2850   1.2909   1.2926   1.3007   1.3102
     1.3234   1.3294   1.3356   1.3364   1.3617   1.3632   1.3699   1.3730
     1.3787   1.3882   1.3994   1.4079   1.4099   1.4142   1.4259   1.4314
     1.4344   1.4395   1.4463   1.4536   1.4652   1.4664   1.4760   1.4875
     1.5003   1.5198   1.5204   1.5267   1.5277   1.5403   1.5467   1.5556
     1.5570   1.5572   1.5868   1.5898   1.5950   1.6461   1.6630   1.7191
     1.7596   1.7890   1.8057   1.8194   1.8205   1.8217   1.8400   1.8432
     1.8525   1.8697   1.9224   1.9317   1.9708   1.9808   1.9871   1.9983
     2.0039   2.0156   2.0210   2.0511   2.0622   2.0642   2.0975   2.1128
     2.2024   2.2307   2.2513   2.2694   2.2885   2.2987   2.3145   2.3201
     2.3329   2.3345   2.3414   2.3708   2.3743   2.3771   2.4115   2.4287
     2.4362   2.4408   2.4417   2.4747   2.4951   2.6507   2.7096   2.7199
     2.7345   2.8349   2.8365   2.8652   3.0033   3.0473   3.0915   3.1060
     3.1274   3.1639   3.1780   3.1870   3.1966   3.2225   3.2283   3.2581
     3.2708   3.2791   3.2900   3.3320   3.3546   3.3809   3.3926   3.4035
     3.4083   3.4204   3.4290   3.4707   3.4809   3.4878   3.5153   3.5651
[...]
     3.9111   3.9142   3.9539   3.9592   3.9923   4.0040   4.0159   4.0287
     4.0311   4.0321   4.0355   4.0486   4.0613   4.0650   4.0812   4.0879
     4.0924   4.0980   4.0998   4.1114   4.1133   4.1184   4.1272   4.1427
     4.1525   4.1558   4.1594   4.1769   4.1862   4.1939   4.1990   4.2046
     4.2080   4.2095   4.2160   4.2168   4.2202   4.2354   4.2463   4.2472
     4.2587   4.2727   4.2754   4.2799   4.2830   4.2899   4.2976   4.2983
     4.3043   4.3254   4.3322   4.3387   4.3719   4.3898   4.3958   4.4042
     4.4131   4.4230   4.4236   4.4349   4.4381   4.4385   4.4587   4.4686
     4.4704   4.4771   4.4774   4.4844   4.4912   4.4933   4.4984   4.5025
     4.5077   4.5116   4.5154   4.5316   4.5369   4.5449   4.5478   4.5522
     4.5578   4.5619   4.5740   4.5750   4.5780   4.5845   4.5937   4.6091
     4.6378   4.6587   4.6595   4.6773   4.6788   4.7021   4.7594   4.7737
     4.8912   4.8917   4.8940   4.9152   5.0316   5.0966   5.1092   5.1173
     5.1276   5.1570   5.1780   5.1784   5.1928   5.2070   5.2163   5.3217
     5.4375   5.4593   5.5285

     the Fermi energy is     2.3594 ev

!    total energy              =  -21094.96250819 Ry
     Harris-Foulkes estimate   =  -21094.96250808 Ry
     estimated scf accuracy    <          3.2E-11 Ry

     The total energy is the sum of the following terms:

     one-electron contribution = -168050.00134102 Ry
     hartree contribution      =   84109.70250360 Ry
     xc contribution           =   -2234.99939092 Ry
     ewald contribution        =   69955.18102653 Ry
     Dispersion Correction     =      -1.39943574 Ry
     one-center paw contrib.   =   -4873.44761140 Ry
     smearing contrib. (-TS)   =       0.00174076 Ry

     total magnetization       =   160.54 Bohr mag/cell
     absolute magnetization    =   167.31 Bohr mag/cell

     convergence has been achieved in   9 iterations

     negative rho (up, down):  2.518E-02 1.825E-02

     Forces acting on atoms (cartesian axes, Ry/au):

     atom    1 type  1   force =     0.00062532   -0.00023931    0.00913702
     atom    2 type  1   force =     0.00143464   -0.00216622   -0.01356528
     atom    3 type  1   force =    -0.00056803   -0.00032748    0.00922790
     atom    4 type  1   force =     0.00076941    0.00088330   -0.00842471
     atom    5 type  1   force =    -0.00000209   -0.00003875    0.00000123
     atom    6 type  1   force =     0.00010954   -0.00006697   -0.00003361
     atom    7 type  1   force =    -0.00000259   -0.00001923    0.00001056
     atom    8 type  1   force =    -0.00003045   -0.00005709    0.00003716
     atom    9 type  1   force =     0.00001796   -0.00000166    0.00987431
     atom   10 type  1   force =    -0.00018300   -0.00012586    0.00918872
     atom   11 type  1   force =    -0.00023118    0.00141064   -0.00746081
     atom   12 type  1   force =     0.00081874    0.00066763   -0.01170144
     atom   13 type  1   force =     0.00000481   -0.00002849   -0.00000098
     atom   14 type  1   force =     0.00000312   -0.00003743   -0.00006745
     atom   15 type  1   force =    -0.00003109    0.00002590    0.00001275
     atom   16 type  1   force =     0.00000919   -0.00002305    0.00000011
     atom   17 type  1   force =    -0.00048156   -0.00041509    0.00918127
     atom   18 type  1   force =     0.00107243    0.00052752   -0.00839171
     atom   19 type  1   force =     0.00052803    0.00035749    0.00931993
     atom   20 type  1   force =     0.00043357   -0.00085080   -0.01108305
     atom   21 type  1   force =     0.00001097   -0.00000579    0.00001621
     atom   22 type  1   force =     0.00000933   -0.00003093    0.00004286
     atom   23 type  1   force =    -0.00000206   -0.00000354    0.00003335
     atom   24 type  1   force =     0.00005016   -0.00006555   -0.00004952
     atom   25 type  1   force =    -0.00002072   -0.00004233    0.00724057
     atom   26 type  1   force =    -0.00064387    0.00080020    0.01011495
     atom   27 type  1   force =    -0.00011138   -0.00008715   -0.00644382
     atom   28 type  1   force =    -0.00109304    0.00073215   -0.00691640
     atom   29 type  1   force =    -0.00000567   -0.00002630    0.00000910
     atom   30 type  1   force =     0.00000632    0.00000628   -0.00000113
     atom   31 type  1   force =    -0.00008028   -0.00005956   -0.00004580
     atom   32 type  1   force =     0.00006447    0.00002296    0.00000535
     atom   33 type  1   force =    -0.00045972    0.00022490    0.00899257
     atom   34 type  1   force =    -0.00062071   -0.00076651   -0.00854650
     atom   35 type  1   force =     0.00000814    0.00065651    0.00914915
     atom   36 type  1   force =    -0.00166736    0.00221951   -0.01353021
     atom   37 type  1   force =     0.00000700   -0.00000330   -0.00002179
     atom   38 type  1   force =    -0.00003149   -0.00008221    0.00008464
     atom   39 type  1   force =    -0.00001269   -0.00003015   -0.00000597
     atom   40 type  1   force =    -0.00002737    0.00010899   -0.00003074
     atom   41 type  1   force =     0.00011105    0.00004828    0.00831573
     atom   42 type  1   force =     0.00053760   -0.00084481    0.01020198
     atom   43 type  1   force =    -0.00120670   -0.00074504   -0.01131152
     atom   44 type  1   force =     0.00029614   -0.00122083   -0.00690217
     atom   45 type  1   force =     0.00001376   -0.00000601    0.00015089
     atom   46 type  1   force =     0.00000420    0.00000322    0.00003595
     atom   47 type  1   force =    -0.00003844   -0.00004861   -0.00003290
     atom   48 type  1   force =     0.00004665    0.00002757   -0.00001444
     atom   49 type  1   force =     0.00052380    0.00036494    0.00938085
     atom   50 type  1   force =    -0.00060559    0.00062935   -0.01108490
     atom   51 type  1   force =     0.00008891   -0.00051605    0.00897895
     atom   52 type  1   force =    -0.00094798   -0.00024845   -0.00852992
     atom   53 type  1   force =     0.00001749   -0.00001346    0.00002871
     atom   54 type  1   force =    -0.00003195    0.00004953   -0.00006402
     atom   55 type  1   force =     0.00002182   -0.00002260   -0.00002636
     atom   56 type  1   force =    -0.00003881   -0.00000512    0.00008703
     atom   57 type  1   force =    -0.00004494   -0.00001464    0.00985964
     atom   58 type  1   force =    -0.00004057   -0.00000890    0.00937232
     atom   59 type  1   force =     0.00121468   -0.00062556   -0.00741336
     atom   60 type  1   force =     0.00025513    0.00016439   -0.00640887
     atom   61 type  1   force =     0.00001250    0.00001540   -0.00000910
     atom   62 type  1   force =    -0.00000131   -0.00002381   -0.00001485
     atom   63 type  1   force =     0.00003518   -0.00004629   -0.00000212
     atom   64 type  1   force =    -0.00001146   -0.00001531   -0.00002230
     atom   65 type  2   force =     0.00000740   -0.00001366    0.00005738
     atom   66 type  3   force =     0.00001923    0.00001092   -0.00007399
     atom   67 type  2   force =     0.00008539    0.00006231    0.00008261

     Total force =     0.000425     Total SCF correction =     0.000021

     bfgs converged in  16 scf cycles and  15 bfgs steps
     (criteria: energy <  7.3E-07 Ry, force <  3.9E-04 Ry/Bohr)

     End of BFGS Geometry Optimization

     Final energy   =  -21094.9625081859 Ry
Begin final coordinates

ATOMIC_POSITIONS (angstrom)
Fe       1.654912953   1.170200133   0.000000000    0   0   0
Fe       0.000000000   0.000000000   2.026984232    0   0   0
Fe       4.964738858   3.510600399   0.000000000    0   0   0
Fe       3.309825906   2.340400266   2.026984232    0   0   0
Fe       1.676621719   1.169817709   4.024066952
Fe       3.320093551   9.356100424   6.001338812
Fe       4.976372657   3.524843326   4.041943657
Fe       3.369904784   2.334738082   6.009533774
Fe       2.482363858   3.510600399   0.000000000    0   0   0
Fe       4.137287953   1.170200133   0.000000000    0   0   0
Fe       0.827450906   2.340400266   2.026984232    0   0   0
Fe       2.482375000   0.000000000   2.026984232    0   0   0
Fe       2.482929986   3.510028900   4.040522309
Fe       4.161453114   1.187915344   4.032958195
Fe       0.865291598   2.322155424   5.998690288
Fe       2.496851349   0.011042038   6.010788105
Fe       6.619662953   1.170200133   0.000000000    0   0   0
Fe       4.964750000   0.000000000   2.026984232    0   0   0
Fe       9.929488858   3.510600399   0.000000000    0   0   0
Fe       8.274575906   2.340400266   2.026984232    0   0   0
Fe       6.636443412   1.176810519   4.041669117
Fe       4.978595652   0.059227940   6.009801794
Fe       9.917373024   3.495738676   4.039696046
Fe       8.365195518   2.212314200   5.985406909
Fe       7.447113858   3.510600399   0.000000000    0   0   0
Fe       9.102037953   1.170200133   0.000000000    0   0   0
Fe       5.792200906   2.340400266   2.026984232    0   0   0
Fe       7.447125000   0.000000000   2.026984232    0   0   0
Fe       7.446729090   3.510366127   4.000489369
Fe       9.120422875   1.142279488   4.012949019
Fe       5.886628158   2.407296385   6.049837037
Fe      10.769155193   9.321967699   5.999305539
Fe       3.309814764   5.851000664   0.000000000    0   0   0
Fe       1.654901811   4.680800531   2.026984232    0   0   0
Fe       6.619640670   8.191400930   0.000000000    0   0   0
Fe       4.964727717   7.021200797   2.026984232    0   0   0
Fe       3.288949688   5.851798001   4.027143545
Fe      11.525972212   4.679495053   6.005584730
Fe       6.626305411   8.212513950   4.024283411
Fe       4.962789987   7.033583675   6.000912718
Fe       4.137265670   8.191400930   0.000000000    0   0   0
Fe       5.792189764   5.851000664   0.000000000    0   0   0
Fe      12.411852717   7.021200797   2.026984232    0   0   0
Fe       4.137276811   4.680800531   2.026984232    0   0   0
Fe       4.136061971   8.191025608   4.015412006
Fe       5.771940322   5.877883531   4.012918791
Fe      12.385963401   7.003323112   6.012731116
Fe       4.103706396   4.706572642   6.000018178
Fe       8.274564764   5.851000664   0.000000000    0   0   0
Fe       6.619651811   4.680800531   2.026984232    0   0   0
Fe      11.584390670   8.191400930   0.000000000    0   0   0
Fe       9.929477717   7.021200797   2.026984232    0   0   0
Fe       8.256218943   5.844941608   4.039961776
Fe       6.528924685   4.809411191   5.985403454
Fe      11.577908821   8.171793519   4.027048549
Fe       9.908442138   6.966782670   6.005584878
Fe       9.102015670   8.191400930   0.000000000    0   0   0
Fe      10.756939764   5.851000664   0.000000000    0   0   0
Fe       7.447102717   7.021200797   2.026984232    0   0   0
Fe       9.102026811   4.680800531   2.026984232    0   0   0
Fe       9.101335627   8.192634342   4.040672532
Fe      10.732144664   5.833924960   4.030578678
Fe       7.442121778   7.063665400   5.999305330
Fe       9.010185541   4.615933220   6.049081705
H        7.449655608   3.513018429   8.026382109
N        7.448112093   3.511649213   6.998098682
H        4.560774916   8.491303822   6.940543357
End final coordinates

     Writing output data file Fe_NH_H_paper_480c.save/

     General routines

     Parallel routines

   This run was terminated on:   8:13:51   5Jun2022

   JOB DONE.