     Program PWSCF v.6.7MaX starts on  8Jul2022 at 17:35:38

     K-points division:     npool     =       8
     R & G space division:  proc/nbgrp/npool/nimage =      32
     Waiting for input...
     Reading input from standard input
Warning: card &CELL ignored
Warning: card / ignored

     Current dimensions of program PWSCF are:
     Max number of different atomic species (ntypx) = 10
     Max number of k-points (npk) =  40000
     Max angular momentum in pseudopotentials (lmaxx) =  3
     file Fe.pbe-spn-kjpaw_psl.0.2.1.UPF: wavefunction(s)  3D renormalized

     IMPORTANT: XC functional enforced from input :
     Exchange-correlation= PBE
                           (   1   4   3   4   0   0   0)
     Any further DFT definition will be discarded
     Please, verify this is what you really want

     Parameters for Dispersion (Grimme-D2) Correction:
       atom      VdW radius       C_6

        Fe         2.952        374.666
        N          2.640         42.670
        H          1.892          4.857

     bravais-lattice index     =            0
     lattice parameter (alat)  =      18.7640  a.u.
     unit-cell volume          =   16360.3161 (a.u.)^3
     number of atoms/cell      =           68
     number of atomic types    =            3
     number of electrons       =      1032.00
     number of Kohn-Sham states=          619
     kinetic-energy cutoff     =      60.0000  Ry
     charge density cutoff     =     480.0000  Ry
     scf convergence threshold =      1.0E-08
     mixing beta               =       0.2000
     number of iterations used =           10  local-TF  mixing
     energy convergence thresh.=      7.3E-07
     force convergence thresh. =      3.9E-04
     Exchange-correlation= PBE
                           (   1   4   3   4   0   0   0)
     nstep                     =           50

     Effective Screening Medium Method
     Boundary Conditions: Metal-Slab-Metal
     field strength                   =     0.00 Ry/a.u.
     grid points for fit at edges     =        4

     celldm(1)=  18.764036  celldm(2)=   0.000000  celldm(3)=   0.000000
     celldm(4)=   0.000000  celldm(5)=   0.000000  celldm(6)=   0.000000

     crystal axes: (cart. coord. in units of alat)
               a(1) = (   1.000000   0.000000   0.000000 )
               a(2) = (   0.333330   0.942807   0.000000 )
               a(3) = (   0.000000   0.000000   2.626577 )

     reciprocal axes: (cart. coord. in units 2 pi/alat)
               b(1) = (  1.000000 -0.353551  0.000000 )
               b(2) = (  0.000000  1.060663  0.000000 )
               b(3) = (  0.000000  0.000000  0.380724 )

     PseudoPot. # 1 for Fe read from file:
     ../../SSSP/Fe.pbe-spn-kjpaw_psl.0.2.1.UPF
     MD5 check sum: e86618425769142926afa95317d90200
     Pseudo is Projector augmented-wave + core cor, Zval = 16.0
     Generated using "atomic" code by A. Dal Corso  v.5.0.99 svn rev. 10869
     Shape of augmentation charge: PSQ
     Using radial grid of 1191 points,  6 beta functions with:
                l(1) =   0
                l(2) =   0
                l(3) =   1
                l(4) =   1
                l(5) =   2
                l(6) =   2
     Q(r) pseudized with 0 coefficients

     PseudoPot. # 2 for N  read from file:
     ../../SSSP/N.pbe-n-radius_5.UPF
     MD5 check sum: 16739722b17309cd8fe442a2ace49922
     Pseudo is Ultrasoft + core correction, Zval =  5.0
     Generated using "atomic" code by A. Dal Corso  v.5.1
     Using radial grid of 1085 points,  4 beta functions with:
                l(1) =   0
                l(2) =   0
                l(3) =   1
                l(4) =   1
     Q(r) pseudized with 0 coefficients

     PseudoPot. # 3 for H  read from file:
     ../../SSSP/H.pbe-rrkjus_psl.1.0.0.UPF
     MD5 check sum: f52b6d4d1c606e5624b1dc7b2218f220
     Pseudo is Ultrasoft, Zval =  1.0
     Generated using "atomic" code by A. Dal Corso  v.5.1
     Using radial grid of  929 points,  2 beta functions with:
                l(1) =   0
                l(2) =   0
     Q(r) pseudized with 0 coefficients

     atomic species   valence    mass     pseudopotential
        Fe            16.00    55.84500     Fe( 1.00)
        N              5.00    14.00700     N ( 1.00)
        H              1.00     1.00800     H ( 1.00)

     Starting magnetic structure
     atomic species   magnetization
        Fe           0.100
        N            0.100
        H            0.100

     No symmetry found

   Cartesian axes

     site n.     atom                  positions (alat units)
         1           Fe  tau(   1) = (   0.1666663   0.1178509   0.0000000  )
         2           Fe  tau(   2) = (   0.0000000   0.0000000   0.2041376  )
         3           Fe  tau(   3) = (   0.4999989   0.3535526   0.0000000  )
         4           Fe  tau(   4) = (   0.3333326   0.2357017   0.2041376  )
         5           Fe  tau(   5) = (   0.1662170   0.1176445   0.4052802  )
         6           Fe  tau(   6) = (   0.3330511   0.9440826   0.6058663  )
         7           Fe  tau(   7) = (   0.4996524   0.3541752   0.4041872  )
         8           Fe  tau(   8) = (   0.3330739   0.2348314   0.6047444  )
         9           Fe  tau(   9) = (   0.2499989   0.3535526   0.0000000  )
        10           Fe  tau(  10) = (   0.4166663   0.1178509   0.0000000  )
        11           Fe  tau(  11) = (   0.0833326   0.2357017   0.2041376  )
        12           Fe  tau(  12) = (   0.2500000   0.0000000   0.2041376  )
        13           Fe  tau(  13) = (   0.2500226   0.3534598   0.4057148  )
        14           Fe  tau(  14) = (   0.4159904   0.1173735   0.4049081  )
        15           Fe  tau(  15) = (   0.0825924   0.2363449   0.6036676  )
        16           Fe  tau(  16) = (   0.2500275   0.0000355   0.6050451  )
        17           Fe  tau(  17) = (   0.6666663   0.1178509   0.0000000  )
        18           Fe  tau(  18) = (   0.5000000   0.0000000   0.2041376  )
        19           Fe  tau(  19) = (   0.9999989   0.3535526   0.0000000  )
        20           Fe  tau(  20) = (   0.8333326   0.2357017   0.2041376  )
        21           Fe  tau(  21) = (   0.6671388   0.1173085   0.4041954  )
        22           Fe  tau(  22) = (   0.4990800   0.0000401   0.6047328  )
        23           Fe  tau(  23) = (   1.0002948   0.3528379   0.4040508  )
        24           Fe  tau(  24) = (   0.8344328   0.2341177   0.6131506  )
        25           Fe  tau(  25) = (   0.7499989   0.3535526   0.0000000  )
        26           Fe  tau(  26) = (   0.9166663   0.1178509   0.0000000  )
        27           Fe  tau(  27) = (   0.5833326   0.2357017   0.2041376  )
        28           Fe  tau(  28) = (   0.7500000   0.0000000   0.2041376  )
        29           Fe  tau(  29) = (   0.7499687   0.3535117   0.4074709  )
        30           Fe  tau(  30) = (   0.9158764   0.1187379   0.4084475  )
        31           Fe  tau(  31) = (   0.5785997   0.2323533   0.5977302  )
        32           Fe  tau(  32) = (   1.0836102   0.9440052   0.6037594  )
        33           Fe  tau(  33) = (   0.3333315   0.5892543   0.0000000  )
        34           Fe  tau(  34) = (   0.1666652   0.4714034   0.2041376  )
        35           Fe  tau(  35) = (   0.6666640   0.8249560   0.0000000  )
        36           Fe  tau(  36) = (   0.4999978   0.7071052   0.2041376  )
        37           Fe  tau(  37) = (   0.3338367   0.5895286   0.4056824  )
        38           Fe  tau(  38) = (   1.1670898   0.4714810   0.6042065  )
        39           Fe  tau(  39) = (   0.6663057   0.8246308   0.4052796  )
        40           Fe  tau(  40) = (   0.5010674   0.7064763   0.6058713  )
        41           Fe  tau(  41) = (   0.4166640   0.8249560   0.0000000  )
        42           Fe  tau(  42) = (   0.5833315   0.5892543   0.0000000  )
        43           Fe  tau(  43) = (   0.2499978   0.7071052   0.2041376  )
        44           Fe  tau(  44) = (   0.4166652   0.4714034   0.2041376  )
        45           Fe  tau(  45) = (   0.4164851   0.8248718   0.4054940  )
        46           Fe  tau(  46) = (   0.5838892   0.5882400   0.4084486  )
        47           Fe  tau(  47) = (   1.2488466   0.7063160   0.6059892  )
        48           Fe  tau(  48) = (   0.4178841   0.4712874   0.6037558  )
        49           Fe  tau(  49) = (   0.8333315   0.5892543   0.0000000  )
        50           Fe  tau(  50) = (   0.6666652   0.4714034   0.2041376  )
        51           Fe  tau(  51) = (   1.1666640   0.8249560   0.0000000  )
        52           Fe  tau(  52) = (   0.9999978   0.7071052   0.2041376  )
        53           Fe  tau(  53) = (   0.8327631   0.5897642   0.4040372  )
        54           Fe  tau(  54) = (   0.6655729   0.4729044   0.6131247  )
        55           Fe  tau(  55) = (   1.1670705   0.8253740   0.4056890  )
        56           Fe  tau(  56) = (   1.0001963   0.7074724   0.6042379  )
        57           Fe  tau(  57) = (   0.9166640   0.8249560   0.0000000  )
        58           Fe  tau(  58) = (   1.0833315   0.5892543   0.0000000  )
        59           Fe  tau(  59) = (   0.7499978   0.7071052   0.2041376  )
        60           Fe  tau(  60) = (   0.9166652   0.4714034   0.2041376  )
        61           Fe  tau(  61) = (   0.9165820   0.8250163   0.4057195  )
        62           Fe  tau(  62) = (   1.0839698   0.5897091   0.4046548  )
        63           Fe  tau(  63) = (   0.7503435   0.7061881   0.6036765  )
        64           Fe  tau(  64) = (   0.9215437   0.4748570   0.5977225  )
        65           N   tau(  65) = (   0.7500130   0.3535404   0.7528212  )
        66           H   tau(  66) = (   0.8169492   0.4009451   0.8161228  )
        67           H   tau(  67) = (   0.6831219   0.3062085   0.8162252  )
        68           H   tau(  68) = (   0.4576675   0.8539922   0.6991343  )

     number of k points=    10  Methfessel-Paxton smearing, width (Ry)=  0.0100
                       cart. coord. in units 2pi/alat
        k(    1) = (   0.0000000   0.0000000   0.0000000), wk =   0.0625000
        k(    2) = (   0.0000000   0.2651656   0.0000000), wk =   0.1250000
        k(    3) = (   0.0000000  -0.5303313   0.0000000), wk =   0.0625000
        k(    4) = (   0.2500000  -0.0883878   0.0000000), wk =   0.1250000
        k(    5) = (   0.2500000   0.1767779   0.0000000), wk =   0.1250000
        k(    6) = (   0.2500000  -0.6187190   0.0000000), wk =   0.1250000
        k(    7) = (   0.2500000  -0.3535534   0.0000000), wk =   0.1250000
        k(    8) = (  -0.5000000   0.1767755   0.0000000), wk =   0.0625000
        k(    9) = (  -0.5000000   0.4419412   0.0000000), wk =   0.1250000
        k(   10) = (  -0.5000000  -0.3535558   0.0000000), wk =   0.0625000

     Check: negative core charge=   -0.000039
     Generating pointlists ...
     new r_m :   0.0742 (alat units)  1.3920 (a.u.) for type    1
     new r_m :   0.0427 (alat units)  0.8019 (a.u.) for type    2
     new r_m :   0.0427 (alat units)  0.8019 (a.u.) for type    3

     Initial potential from superposition of free atoms

     starting charge 1031.97191, renormalised to 1032.00000

     negative rho (up, down):  1.338E-02 1.095E-02
[...]
   -55.8797 -55.8637 -55.6697 -55.6624 -55.6115 -55.5966 -55.5842 -55.5784
   -55.5701 -55.5668 -55.5560 -55.5530 -55.5519 -55.5502 -55.5488 -55.5472
   -55.5411 -55.5399 -55.5386 -55.5374 -55.5347 -55.5304 -55.5260 -55.5242
   -55.5239 -55.5203 -55.5201 -55.5188 -55.5139 -55.5092 -55.5061 -55.5006
   -55.4990 -55.4923 -55.4918 -55.4892 -55.4879 -55.4817 -55.4784 -55.4777
   -55.4763 -55.4694 -55.4657 -55.4654 -55.4643 -55.4633 -55.4619 -55.4586
   -55.4563 -55.4515 -55.4498 -55.4476 -55.4434 -55.4420 -55.4418 -55.4389
   -55.4365 -55.4355 -55.4354 -55.4333 -55.4320 -55.4304 -55.4290 -55.4267
   -55.4181 -55.4133 -55.4063 -55.4032 -55.4027 -55.3980 -55.3961 -55.3940
   -55.3885 -55.3836 -55.3831 -55.3760 -55.3727 -55.3684 -55.3683 -55.3598
   -55.3594 -55.3545 -55.3504 -55.3493 -55.3472 -55.3447 -55.3416 -55.3412
   -55.3396 -55.3388 -55.3343 -55.3339 -55.3312 -55.3297 -55.3281 -55.3196
   -55.3190 -55.3168 -55.3163 -55.3129 -55.3110 -55.3096 -55.3071 -55.3042
   -55.2979 -55.2948 -55.2942 -55.2922 -55.2911 -55.2911 -55.2897 -55.2857
   -55.2812 -55.2795 -55.2791 -55.2775 -55.2753 -55.2732 -55.2714 -55.2681
   -55.2677 -55.2676 -55.2675 -55.2645 -55.2637 -55.2636 -55.2576 -55.2561
   -55.2546 -55.2543 -55.2520 -55.2507 -55.2473 -55.2442 -55.2407 -55.2368
   -55.2348 -55.2319 -55.2318 -55.2301 -55.2300 -55.2281 -55.2276 -55.2258
   -55.2255 -55.2239 -55.2229 -55.2225 -55.2224 -55.2193 -55.2181 -55.2175
   -55.2146 -55.2123 -55.2095 -55.2089 -55.2079 -55.2058 -55.2055 -55.2035
   -55.2022 -55.1997 -55.1996 -55.1982 -55.1982 -55.1973 -55.1971 -55.1962
   -55.1954 -55.1946 -55.1933 -55.1920 -55.1919 -55.1901 -55.1871 -55.1850
   -55.1849 -55.1831 -55.1814 -55.1809 -55.1775 -55.1772 -55.1770 -55.1752
   -55.1723 -55.1723 -55.1718 -55.1703 -55.1692 -55.1662 -55.1640 -55.1639
   -21.4736 -12.5465 -11.4085 -11.2482 -10.9677 -10.6700 -10.6617 -10.2657
    -9.9416  -9.4719  -9.4534  -9.0741  -8.7370  -8.6625  -8.6565  -8.6009
    -8.3513  -8.2424  -7.9801  -7.8177  -7.8088  -7.8053  -7.7873  -7.7733
    -7.7431  -7.6917  -7.6852  -7.6782  -7.6764  -7.5929  -7.4379  -7.2623
    -7.2610  -7.2486  -7.2434  -7.2000  -7.1392  -7.0357  -6.9678  -6.7888
    -6.7728  -6.7546  -6.7402  -6.7347  -6.6876  -6.6850  -6.6573  -6.6503
    -6.6311  -6.6112  -6.5646  -6.4919  -6.4918  -6.4756  -6.4706  -6.4353
    -6.3893  -6.2281  -6.2117  -6.2051  -6.2033  -6.1947  -6.1522  -5.9810
    -5.9359  -5.9245  -5.8951  -5.8810  -5.8743  -5.7892  -5.7656  -5.7106
    -5.6977  -5.6956  -5.6792  -5.6776  -5.6747  -5.6657  -5.6620  -5.6617
    -5.6419  -5.5959  -5.5775  -5.5758  -5.5640  -5.5599  -5.5572  -5.5568
    -5.5513  -5.5385  -5.5377  -5.4757  -5.4457  -5.3565  -5.3366  -5.3236
    -5.3192  -5.2232  -5.2112  -5.2088  -5.2005  -5.1820  -5.1707  -5.1663
    -5.1558  -5.1540  -5.1397  -5.1347  -5.1343  -5.1248  -5.1210  -5.1169
    -5.1027  -5.0982  -5.0950  -5.0807  -5.0757  -5.0671  -5.0652  -5.0623
    -5.0595  -5.0520  -5.0484  -5.0386  -5.0356  -5.0106  -5.0077  -5.0019
    -4.9761  -4.9709  -4.9632  -4.9607  -4.9557  -4.9474  -4.9466  -4.9425
    -4.9386  -4.9364  -4.9310  -4.9249  -4.8907  -4.8720  -4.8490  -4.7623
    -4.7402  -4.6936  -4.6908  -4.6891  -4.6872  -4.6691  -4.6532  -4.6338
    -4.6227  -4.6156  -4.5893  -4.5628  -4.5224  -4.5125  -4.4978  -4.4840
    -4.4796  -4.4744  -4.4483  -4.4472  -4.4394  -4.4298  -4.3853  -4.3735
    -4.2806  -4.2598  -4.2439  -4.2429  -4.2146  -4.1991  -4.1938  -4.1740
    -4.1698  -4.1593  -4.1567  -4.1499  -4.1140  -4.1056  -4.0920  -4.0619
    -4.0481  -4.0480  -4.0383  -4.0269  -3.9953  -3.8253  -3.7611  -3.7552
    -3.7083  -3.6522  -3.6476  -3.5925  -3.5319  -3.4236  -3.4092  -3.3907
    -3.3790  -3.3705  -3.3277  -3.3141  -3.2860  -3.2552  -3.2416  -3.2200
    -3.2120  -3.2011  -3.1868  -3.1400  -3.1300  -3.1212  -3.1061  -3.0930
    -3.0845  -3.0524  -3.0341  -3.0103  -2.9856  -2.9556  -2.9502  -2.9163
[...]
    -2.5823  -2.5628  -2.5363  -2.5330  -2.4867  -2.4858  -2.4639  -2.4517
    -2.4475  -2.4421  -2.4417  -2.4358  -2.4277  -2.4229  -2.4174  -2.4111
    -2.3930  -2.3890  -2.3868  -2.3805  -2.3749  -2.3676  -2.3656  -2.3616
    -2.3496  -2.3225  -2.3180  -2.3104  -2.2984  -2.2970  -2.2948  -2.2895
    -2.2829  -2.2805  -2.2765  -2.2591  -2.2552  -2.2535  -2.2396  -2.2358
    -2.2295  -2.2234  -2.2138  -2.2045  -2.1972  -2.1964  -2.1926  -2.1925
    -2.1896  -2.1879  -2.1660  -2.1574  -2.1499  -2.1442  -2.0949  -2.0695
    -2.0671  -2.0665  -2.0568  -2.0422  -2.0381  -2.0376  -2.0202  -2.0139
    -2.0094  -2.0084  -2.0028  -2.0023  -1.9998  -1.9992  -1.9945  -1.9895
    -1.9884  -1.9844  -1.9686  -1.9634  -1.9596  -1.9444  -1.9392  -1.9372
    -1.9314  -1.9255  -1.9208  -1.9193  -1.9063  -1.9044  -1.8938  -1.8884
    -1.8866  -1.8503  -1.8150  -1.8126  -1.8113  -1.8072  -1.8042  -1.7898
    -1.6431  -1.6176  -1.6105  -1.5810  -1.4635  -1.4095  -1.3784  -1.3766
    -1.3568  -1.3326  -1.3221  -1.3155  -1.2871  -1.2834  -1.2733  -1.2505
    -1.2340  -1.0595  -1.0313

     the Fermi energy is    -4.1288 ev

!    total energy              =  -21096.11200678 Ry
     estimated scf accuracy    <          5.9E-11 Ry
     smearing contrib. (-TS)   =       0.00096245 Ry
     internal energy E=F+TS    =  -21096.11296923 Ry

     The total energy is F=E-TS. E is the sum of the following terms:
     one-electron contribution = -745483.60384650 Ry
     hartree contribution      =  372580.82668656 Ry
     xc contribution           =   -2235.82422809 Ry
     ewald contribution        =  358917.33111523 Ry
     Dispersion Correction     =      -1.40176488 Ry
     one-center paw contrib.   =   -4873.44093155 Ry

     total magnetization       =   161.32 Bohr mag/cell
     absolute magnetization    =   167.96 Bohr mag/cell

     convergence has been achieved in  13 iterations

     negative rho (up, down):  1.183E-02 1.628E-02

     Forces acting on atoms (cartesian axes, Ry/au):

     atom    1 type  1   force =     0.00044670    0.00000584    0.00989004
     atom    2 type  1   force =    -0.00113879    0.00158960   -0.00555796
     atom    3 type  1   force =    -0.00008270    0.00010853    0.01006958
     atom    4 type  1   force =    -0.00010077    0.00021122   -0.01090959
     atom    5 type  1   force =     0.00000189   -0.00000566   -0.00003551
     atom    6 type  1   force =    -0.00003134    0.00000089   -0.00006713
     atom    7 type  1   force =     0.00001297   -0.00000166   -0.00005703
     atom    8 type  1   force =     0.00000187    0.00003907   -0.00004512
     atom    9 type  1   force =    -0.00005006   -0.00003740    0.01011600
     atom   10 type  1   force =    -0.00017532   -0.00014843    0.00907732
     atom   11 type  1   force =     0.00016708   -0.00011547   -0.01109703
     atom   12 type  1   force =    -0.00040506   -0.00021154   -0.01017110
     atom   13 type  1   force =     0.00000055    0.00000267   -0.00009004
     atom   14 type  1   force =     0.00000884    0.00000813   -0.00008861
     atom   15 type  1   force =     0.00015330    0.00004041   -0.00005350
     atom   16 type  1   force =     0.00006352    0.00004529   -0.00003033
     atom   17 type  1   force =     0.00011015   -0.00013498    0.01002729
     atom   18 type  1   force =     0.00020084   -0.00013807   -0.01092223
     atom   19 type  1   force =    -0.00000588    0.00005058    0.01019916
     atom   20 type  1   force =    -0.00005575   -0.00014199   -0.00643297
     atom   21 type  1   force =     0.00000201    0.00001033   -0.00006008
     atom   22 type  1   force =     0.00004089   -0.00001068   -0.00005154
     atom   23 type  1   force =    -0.00001041    0.00001008   -0.00005413
     atom   24 type  1   force =    -0.00005199    0.00005487    0.00023045
     atom   25 type  1   force =     0.00002860   -0.00002540    0.00817582
     atom   26 type  1   force =     0.00004467   -0.00023297    0.00988190
     atom   27 type  1   force =    -0.00000905   -0.00011372   -0.01110354
     atom   28 type  1   force =     0.00026757   -0.00022588   -0.01042309
     atom   29 type  1   force =     0.00000054   -0.00000035    0.00000663
     atom   30 type  1   force =     0.00000580   -0.00001774   -0.00005770
     atom   31 type  1   force =    -0.00012882   -0.00009089   -0.00004549
     atom   32 type  1   force =    -0.00008940   -0.00013754   -0.00003855
     atom   33 type  1   force =    -0.00026034   -0.00006129    0.00978401
     atom   34 type  1   force =     0.00028946   -0.00011309   -0.01092755
     atom   35 type  1   force =     0.00016627    0.00043116    0.00993335
     atom   36 type  1   force =     0.00102587   -0.00148518   -0.00555756
     atom   37 type  1   force =    -0.00000414    0.00000553   -0.00005479
     atom   38 type  1   force =     0.00001221   -0.00002511   -0.00004203
     atom   39 type  1   force =    -0.00000450    0.00000063   -0.00003698
     atom   40 type  1   force =    -0.00001149   -0.00002861   -0.00007778
     atom   41 type  1   force =     0.00004878    0.00009231    0.00722039
     atom   42 type  1   force =    -0.00020956    0.00013849    0.00986069
     atom   43 type  1   force =     0.00006754    0.00014158   -0.00966504
     atom   44 type  1   force =    -0.00016979    0.00032200   -0.01040617
     atom   45 type  1   force =     0.00000359    0.00000388   -0.00004933
     atom   46 type  1   force =    -0.00001440    0.00001169   -0.00005457
     atom   47 type  1   force =    -0.00006805   -0.00004214   -0.00007950
     atom   48 type  1   force =    -0.00015395   -0.00003953   -0.00003672
     atom   49 type  1   force =     0.00009525   -0.00004930    0.01024507
     atom   50 type  1   force =    -0.00008821   -0.00009793   -0.00640228
     atom   51 type  1   force =    -0.00015516   -0.00020746    0.00974052
     atom   52 type  1   force =     0.00000789    0.00035682   -0.01092493
     atom   53 type  1   force =     0.00000406   -0.00001212   -0.00005447
     atom   54 type  1   force =     0.00003611   -0.00006514    0.00023134
     atom   55 type  1   force =     0.00000589   -0.00000609   -0.00005863
     atom   56 type  1   force =    -0.00001762    0.00001928   -0.00003528
     atom   57 type  1   force =    -0.00008024   -0.00002506    0.01012139
     atom   58 type  1   force =     0.00006845    0.00001020    0.00902704
     atom   59 type  1   force =    -0.00004510    0.00022335   -0.01108297
     atom   60 type  1   force =     0.00006191   -0.00006041   -0.01098472
     atom   61 type  1   force =     0.00000427   -0.00000138   -0.00008753
     atom   62 type  1   force =    -0.00001247   -0.00000835   -0.00008169
     atom   63 type  1   force =     0.00009340    0.00013208   -0.00005620
     atom   64 type  1   force =     0.00011846    0.00008352   -0.00004259
     atom   65 type  2   force =    -0.00004231   -0.00003114   -0.00011606
     atom   66 type  3   force =     0.00000378   -0.00000698   -0.00001827
     atom   67 type  3   force =    -0.00000424    0.00000529   -0.00005735
     atom   68 type  3   force =     0.00000595    0.00000136   -0.00009826

     Total force =     0.000646     Total SCF correction =     0.000031
     Energy error            =      5.1E-07
     Gradient error          =      2.3E-04

     bfgs converged in   9 scf cycles and   8 bfgs steps
     (criteria: energy <  7.3E-07 Ry, force <  3.9E-04 Ry/Bohr)

     End of BFGS Geometry Optimization

     Final energy   =  -21096.1120067846 Ry

     File ./Fe_NH2_H_paper_480c_ESM_std.bfgs deleted, as requested
Begin final coordinates

ATOMIC_POSITIONS (angstrom)
Fe            1.6549129530        1.1702001330        0.0000000000    0   0   0
Fe            0.0000000000        0.0000000000        2.0269842320    0   0   0
Fe            4.9647388580        3.5106003990        0.0000000000    0   0   0
Fe            3.3098259060        2.3404002660        2.0269842320    0   0   0
Fe            1.6502802555        1.1683368069        4.0231670290
Fe            3.3076328620        9.3740761619        6.0143079442
Fe            4.9615323047        3.5168770644        4.0128156922
Fe            3.3080278966        2.3312607876        6.0015976452
Fe            2.4823638580        3.5106003990        0.0000000000    0   0   0
Fe            4.1372879530        1.1702001330        0.0000000000    0   0   0
Fe            0.8274509060        2.3404002660        2.0269842320    0   0   0
Fe            2.4823750000        0.0000000000        2.0269842320    0   0   0
Fe            2.4826141034        3.5096858285        4.0281706113
Fe            4.1307572405        1.1656523822        4.0198134323
Fe            0.8184197729        2.3458206834        5.9921840653
Fe            2.4817182455       -0.0002708917        6.0050208172
Fe            6.6196629530        1.1702001330        0.0000000000    0   0   0
Fe            4.9647500000        0.0000000000        2.0269842320    0   0   0
Fe            9.9294888580        3.5106003990        0.0000000000    0   0   0
Fe            8.2745759060        2.3404002660        2.0269842320    0   0   0
Fe            6.6245271961        1.1650551148        4.0128610096
Fe            4.9553957063        0.0013488912        6.0013099613
Fe            9.9322928323        3.5033623474        4.0113193299
Fe            8.2843316213        2.3265361596        6.0876029321
Fe            7.4471138580        3.5106003990        0.0000000000    0   0   0
Fe            9.1020379530        1.1702001330        0.0000000000    0   0   0
Fe            5.7922009060        2.3404002660        2.0269842320    0   0   0
Fe            7.4471250000        0.0000000000        2.0269842320    0   0   0
Fe            7.4468609840        3.5102338681        4.0445338801
Fe            9.0942265591        1.1791716414        4.0546999269
Fe            5.7482153824        2.3092760607        5.9333741640
Fe           10.7610277753        9.3747883338        5.9924779944
Fe            3.3098147640        5.8510006640        0.0000000000    0   0   0
Fe            1.6549018110        4.6808005310        2.0269842320    0   0   0
Fe            6.6196406700        8.1914009300        0.0000000000    0   0   0
Fe            4.9647277170        7.0212007970        2.0269842320    0   0   0
Fe            3.3149955985        5.8536845521        4.0275417563
Fe           11.5874331476        4.6816905965        5.9961481528
Fe            6.6161993881        8.1879683914        4.0231825931
Fe            4.9753854860        7.0155635651        6.0143037415
Fe            4.1372656700        8.1914009300        0.0000000000    0   0   0
Fe            5.7921897640        5.8510006640        0.0000000000    0   0   0
Fe            2.4823527170        7.0212007970        2.0269842320    0   0   0
Fe            4.1372768110        4.6808005310        2.0269842320    0   0   0
Fe            4.1355386329        8.1906012049        4.0254462546
Fe            5.7978940902        5.8408941415        4.0546824161
Fe           12.4010916525        7.0137343720        6.0154018093
Fe            4.1509959554        4.6804393432        5.9925514148
Fe            8.2745647640        5.8510006640        0.0000000000    0   0   0
Fe            6.6196518110        4.6808005310        2.0269842320    0   0   0
Fe           11.5843906700        8.1914009300        0.0000000000    0   0   0
Fe            9.9294777170        7.0212007970        2.0269842320    0   0   0
Fe            8.2687497392        5.8560246240        4.0112405180
Fe            6.6102279284        4.6939345401        6.0872758506
Fe           11.5884682634        8.1957035965        4.0276093322
Fe            9.9312572435        7.0237207723        5.9965578758
Fe            9.1020156700        8.1914009300        0.0000000000    0   0   0
Fe           10.7569397640        5.8510006640        0.0000000000    0   0   0
Fe            7.4471027170        7.0212007970        2.0269842320    0   0   0
Fe            9.1020268110        4.6808005310        2.0269842320    0   0   0
Fe            9.1012744621        8.1920481309        4.0282188280
Fe           10.7630809634        5.8554190766        4.0174139818
Fe            7.4490655820        7.0108298699        5.9923492461
Fe            9.1473751628        4.7128624094        5.9331438956
N             7.4470873932        3.5103369974        7.4740477965
H             8.1097166015        3.9794584247        8.1066729858
H             6.7848381988        3.0418863701        8.1076126308
H             4.5441953669        8.4795965906        6.9408934869
End final coordinates

     Writing output data file ./Fe_NH2_H_paper_480c_ESM_std.save/

     General routines

     Parallel routines

   This run was terminated on:  22:36:53   8Jul2022

   JOB DONE.