     Program PWSCF v.6.7MaX starts on  8Jul2022 at 17:32:48

     K-points division:     npool     =       8
     R & G space division:  proc/nbgrp/npool/nimage =      32
     Waiting for input...
     Reading input from standard input
Warning: card &CELL ignored
Warning: card / ignored

     Current dimensions of program PWSCF are:
     Max number of different atomic species (ntypx) = 10
     Max number of k-points (npk) =  40000
     Max angular momentum in pseudopotentials (lmaxx) =  3
     file Fe.pbe-spn-kjpaw_psl.0.2.1.UPF: wavefunction(s)  3D renormalized

     IMPORTANT: XC functional enforced from input :
     Exchange-correlation= PBE
                           (   1   4   3   4   0   0   0)
     Any further DFT definition will be discarded
     Please, verify this is what you really want

     Parameters for Dispersion (Grimme-D2) Correction:
       atom      VdW radius       C_6

        Fe         2.952        374.666
        N          2.640         42.670
        H          1.892          4.857

     bravais-lattice index     =            0
     lattice parameter (alat)  =      18.7640  a.u.
     unit-cell volume          =   16360.3161 (a.u.)^3
     number of atoms/cell      =           67
     number of atomic types    =            3
     number of electrons       =      1031.00
     number of Kohn-Sham states=          619
     kinetic-energy cutoff     =      60.0000  Ry
     charge density cutoff     =     480.0000  Ry
     scf convergence threshold =      1.0E-08
     mixing beta               =       0.2000
     number of iterations used =           10  local-TF  mixing
     energy convergence thresh.=      7.3E-07
     force convergence thresh. =      3.9E-04
     Exchange-correlation= PBE
                           (   1   4   3   4   0   0   0)
     nstep                     =           50

     Effective Screening Medium Method
     Boundary Conditions: Metal-Slab-Metal
     field strength                   =     0.00 Ry/a.u.
     grid points for fit at edges     =        4

     celldm(1)=  18.764036  celldm(2)=   0.000000  celldm(3)=   0.000000
     celldm(4)=   0.000000  celldm(5)=   0.000000  celldm(6)=   0.000000

     crystal axes: (cart. coord. in units of alat)
               a(1) = (   1.000000   0.000000   0.000000 )
               a(2) = (   0.333330   0.942807   0.000000 )
               a(3) = (   0.000000   0.000000   2.626577 )

     reciprocal axes: (cart. coord. in units 2 pi/alat)
               b(1) = (  1.000000 -0.353551  0.000000 )
               b(2) = (  0.000000  1.060663  0.000000 )
               b(3) = (  0.000000  0.000000  0.380724 )

     PseudoPot. # 1 for Fe read from file:
     ../../SSSP/Fe.pbe-spn-kjpaw_psl.0.2.1.UPF
     MD5 check sum: e86618425769142926afa95317d90200
     Pseudo is Projector augmented-wave + core cor, Zval = 16.0
     Generated using "atomic" code by A. Dal Corso  v.5.0.99 svn rev. 10869
     Shape of augmentation charge: PSQ
     Using radial grid of 1191 points,  6 beta functions with:
                l(1) =   0
                l(2) =   0
                l(3) =   1
                l(4) =   1
                l(5) =   2
                l(6) =   2
     Q(r) pseudized with 0 coefficients

     PseudoPot. # 2 for N  read from file:
     ../../SSSP/N.pbe-n-radius_5.UPF
     MD5 check sum: 16739722b17309cd8fe442a2ace49922
     Pseudo is Ultrasoft + core correction, Zval =  5.0
     Generated using "atomic" code by A. Dal Corso  v.5.1
     Using radial grid of 1085 points,  4 beta functions with:
                l(1) =   0
                l(2) =   0
                l(3) =   1
                l(4) =   1
     Q(r) pseudized with 0 coefficients

     PseudoPot. # 3 for H  read from file:
     ../../SSSP/H.pbe-rrkjus_psl.1.0.0.UPF
     MD5 check sum: f52b6d4d1c606e5624b1dc7b2218f220
     Pseudo is Ultrasoft, Zval =  1.0
     Generated using "atomic" code by A. Dal Corso  v.5.1
     Using radial grid of  929 points,  2 beta functions with:
                l(1) =   0
                l(2) =   0
     Q(r) pseudized with 0 coefficients

     atomic species   valence    mass     pseudopotential
        Fe            16.00    55.84500     Fe( 1.00)
        N              5.00    14.00700     N ( 1.00)
        H              1.00     1.00800     H ( 1.00)

     Starting magnetic structure
     atomic species   magnetization
        Fe           0.100
        N            0.100
        H            0.100

     No symmetry found

   Cartesian axes

     site n.     atom                  positions (alat units)
         1           Fe  tau(   1) = (   0.1666663   0.1178509   0.0000000  )
         2           Fe  tau(   2) = (   0.0000000   0.0000000   0.2041376  )
         3           Fe  tau(   3) = (   0.4999989   0.3535526   0.0000000  )
         4           Fe  tau(   4) = (   0.3333326   0.2357017   0.2041376  )
         5           Fe  tau(   5) = (   0.1659520   0.1175810   0.4053421  )
         6           Fe  tau(   6) = (   0.3326483   0.9437822   0.6045480  )
         7           Fe  tau(   7) = (   0.4994773   0.3539991   0.4040113  )
         8           Fe  tau(   8) = (   0.3326212   0.2349085   0.6046659  )
         9           Fe  tau(   9) = (   0.2499989   0.3535526   0.0000000  )
        10           Fe  tau(  10) = (   0.4166663   0.1178509   0.0000000  )
        11           Fe  tau(  11) = (   0.0833326   0.2357017   0.2041376  )
        12           Fe  tau(  12) = (   0.2500000   0.0000000   0.2041376  )
        13           Fe  tau(  13) = (   0.2500038   0.3535555   0.4055726  )
        14           Fe  tau(  14) = (   0.4158438   0.1172672   0.4046832  )
        15           Fe  tau(  15) = (   0.0821558   0.2362200   0.6034882  )
        16           Fe  tau(  16) = (   0.2495789  -0.0002859   0.6056089  )
        17           Fe  tau(  17) = (   0.6666663   0.1178509   0.0000000  )
        18           Fe  tau(  18) = (   0.5000000   0.0000000   0.2041376  )
        19           Fe  tau(  19) = (   0.9999989   0.3535526   0.0000000  )
        20           Fe  tau(  20) = (   0.8333326   0.2357017   0.2041376  )
        21           Fe  tau(  21) = (   0.6669167   0.1172041   0.4040203  )
        22           Fe  tau(  22) = (   0.4990102  -0.0004232   0.6046479  )
        23           Fe  tau(  23) = (   1.0005395   0.3531053   0.4040173  )
        24           Fe  tau(  24) = (   0.8339271   0.2349135   0.6127668  )
        25           Fe  tau(  25) = (   0.7499989   0.3535526   0.0000000  )
        26           Fe  tau(  26) = (   0.9166663   0.1178509   0.0000000  )
        27           Fe  tau(  27) = (   0.5833326   0.2357017   0.2041376  )
        28           Fe  tau(  28) = (   0.7500000   0.0000000   0.2041376  )
        29           Fe  tau(  29) = (   0.7500145   0.3535431   0.4073932  )
        30           Fe  tau(  30) = (   0.9156153   0.1193455   0.4076658  )
        31           Fe  tau(  31) = (   0.5780307   0.2319510   0.5972529  )
        32           Fe  tau(  32) = (   1.0832464   0.9441187   0.6034971  )
        33           Fe  tau(  33) = (   0.3333315   0.5892543   0.0000000  )
        34           Fe  tau(  34) = (   0.1666652   0.4714034   0.2041376  )
        35           Fe  tau(  35) = (   0.6666640   0.8249560   0.0000000  )
        36           Fe  tau(  36) = (   0.4999978   0.7071052   0.2041376  )
        37           Fe  tau(  37) = (   0.3340349   0.5895474   0.4053449  )
        38           Fe  tau(  38) = (   1.1674066   0.4722071   0.6046468  )
        39           Fe  tau(  39) = (   0.6661593   0.8243969   0.4053404  )
        40           Fe  tau(  40) = (   0.5006542   0.7061856   0.6045406  )
        41           Fe  tau(  41) = (   0.4166640   0.8249560   0.0000000  )
        42           Fe  tau(  42) = (   0.5833315   0.5892543   0.0000000  )
        43           Fe  tau(  43) = (   0.2499978   0.7071052   0.2041376  )
        44           Fe  tau(  44) = (   0.4166652   0.4714034   0.2041376  )
        45           Fe  tau(  45) = (   0.4166468   0.8249857   0.4059703  )
        46           Fe  tau(  46) = (   0.5843729   0.5877891   0.4076607  )
        47           Fe  tau(  47) = (   1.2504146   0.7074198   0.6056091  )
        48           Fe  tau(  48) = (   0.4178713   0.4709022   0.6035054  )
        49           Fe  tau(  49) = (   0.8333315   0.5892543   0.0000000  )
        50           Fe  tau(  50) = (   0.6666652   0.4714034   0.2041376  )
        51           Fe  tau(  51) = (   1.1666640   0.8249560   0.0000000  )
        52           Fe  tau(  52) = (   0.9999978   0.7071052   0.2041376  )
        53           Fe  tau(  53) = (   0.8330954   0.5899023   0.4040064  )
        54           Fe  tau(  54) = (   0.6661509   0.4721609   0.6127345  )
        55           Fe  tau(  55) = (   1.1671606   0.8255483   0.4053449  )
        56           Fe  tau(  56) = (   1.0009941   0.7075301   0.6046618  )
        57           Fe  tau(  57) = (   0.9166640   0.8249560   0.0000000  )
        58           Fe  tau(  58) = (   1.0833315   0.5892543   0.0000000  )
        59           Fe  tau(  59) = (   0.7499978   0.7071052   0.2041376  )
        60           Fe  tau(  60) = (   0.9166652   0.4714034   0.2041376  )
        61           Fe  tau(  61) = (   0.9166668   0.8249631   0.4055693  )
        62           Fe  tau(  62) = (   1.0841657   0.5898408   0.4046826  )
        63           Fe  tau(  63) = (   0.7500805   0.7058177   0.6034959  )
        64           Fe  tau(  64) = (   0.9219865   0.4751687   0.5972441  )
        65           N   tau(  65) = (   0.7501233   0.3536228   0.7530313  )
        66           H   tau(  66) = (   0.8171004   0.4010472   0.8162431  )
        67           H   tau(  67) = (   0.6831528   0.3062511   0.8162907  )

     number of k points=    10  Methfessel-Paxton smearing, width (Ry)=  0.0100
                       cart. coord. in units 2pi/alat
        k(    1) = (   0.0000000   0.0000000   0.0000000), wk =   0.0625000
        k(    2) = (   0.0000000   0.2651656   0.0000000), wk =   0.1250000
        k(    3) = (   0.0000000  -0.5303313   0.0000000), wk =   0.0625000
        k(    4) = (   0.2500000  -0.0883878   0.0000000), wk =   0.1250000
        k(    5) = (   0.2500000   0.1767779   0.0000000), wk =   0.1250000
        k(    6) = (   0.2500000  -0.6187190   0.0000000), wk =   0.1250000
        k(    7) = (   0.2500000  -0.3535534   0.0000000), wk =   0.1250000
        k(    8) = (  -0.5000000   0.1767755   0.0000000), wk =   0.0625000
        k(    9) = (  -0.5000000   0.4419412   0.0000000), wk =   0.1250000
        k(   10) = (  -0.5000000  -0.3535558   0.0000000), wk =   0.0625000

     Check: negative core charge=   -0.000039
     Generating pointlists ...
     new r_m :   0.0833 (alat units)  1.5632 (a.u.) for type    1
     new r_m :   0.0427 (alat units)  0.8018 (a.u.) for type    2
     new r_m :   0.0427 (alat units)  0.8018 (a.u.) for type    3

     Initial potential from superposition of free atoms

     starting charge 1030.97192, renormalised to 1031.00000

     negative rho (up, down):  1.340E-02 1.096E-02
     Starting wfcs are  838 randomized atomic wfcs
[...]
   -89.1711 -89.1709 -89.1699 -89.1684 -89.1681 -89.1672 -89.1662 -89.1654
   -89.1612 -89.1561 -89.1521 -89.1492 -89.1462 -89.1456 -89.1450 -89.1444
   -55.8882 -55.8716 -55.6773 -55.6697 -55.5894 -55.5864 -55.5746 -55.5738
   -55.5700 -55.5594 -55.5565 -55.5554 -55.5553 -55.5487 -55.5482 -55.5448
   -55.5430 -55.5429 -55.5390 -55.5381 -55.5347 -55.5321 -55.5311 -55.5283
   -55.5268 -55.5248 -55.5240 -55.5210 -55.5126 -55.5120 -55.4996 -55.4965
   -55.4962 -55.4925 -55.4897 -55.4869 -55.4859 -55.4807 -55.4719 -55.4691
   -55.4691 -55.4690 -55.4688 -55.4624 -55.4602 -55.4575 -55.4558 -55.4549
   -55.4546 -55.4532 -55.4492 -55.4468 -55.4464 -55.4453 -55.4413 -55.4410
   -55.4377 -55.4363 -55.4351 -55.4347 -55.4337 -55.4322 -55.4301 -55.4285
   -55.4171 -55.4059 -55.4056 -55.4024 -55.4019 -55.3964 -55.3956 -55.3824
   -55.3823 -55.3820 -55.3747 -55.3731 -55.3706 -55.3703 -55.3661 -55.3578
   -55.3558 -55.3541 -55.3503 -55.3483 -55.3448 -55.3447 -55.3423 -55.3415
   -55.3415 -55.3386 -55.3349 -55.3313 -55.3287 -55.3286 -55.3246 -55.3214
   -55.3205 -55.3170 -55.3160 -55.3111 -55.3067 -55.3009 -55.3001 -55.2995
   -55.2985 -55.2962 -55.2956 -55.2935 -55.2928 -55.2923 -55.2898 -55.2844
   -55.2835 -55.2814 -55.2802 -55.2791 -55.2784 -55.2740 -55.2723 -55.2714
   -55.2711 -55.2705 -55.2681 -55.2624 -55.2607 -55.2585 -55.2581 -55.2551
   -55.2539 -55.2522 -55.2521 -55.2453 -55.2409 -55.2381 -55.2377 -55.2358
   -55.2339 -55.2332 -55.2315 -55.2306 -55.2287 -55.2277 -55.2277 -55.2253
   -55.2247 -55.2229 -55.2209 -55.2201 -55.2192 -55.2178 -55.2162 -55.2142
   -55.2133 -55.2121 -55.2092 -55.2089 -55.2087 -55.2064 -55.2044 -55.2038
   -55.2037 -55.2032 -55.2024 -55.2011 -55.2009 -55.2007 -55.1999 -55.1991
   -55.1976 -55.1968 -55.1937 -55.1934 -55.1916 -55.1901 -55.1888 -55.1882
   -55.1870 -55.1863 -55.1859 -55.1846 -55.1812 -55.1797 -55.1797 -55.1772
   -55.1765 -55.1738 -55.1737 -55.1732 -55.1714 -55.1707 -55.1701 -55.1693
   -21.4740 -12.5500 -11.3608 -11.2514 -10.9170 -10.6756 -10.5692  -9.9487
    -9.8080  -9.4551  -9.3108  -8.7403  -8.6689  -8.6622  -8.6485  -8.3529
    -8.2469  -8.1601  -7.8230  -7.8145  -7.8134  -7.8023  -7.7895  -7.7762
    -7.6944  -7.6904  -7.6881  -7.6829  -7.6128  -7.5932  -7.2660  -7.2651
    -7.2533  -7.2496  -7.2239  -7.2041  -7.0405  -7.0225  -6.7919  -6.7861
    -6.7573  -6.7390  -6.7348  -6.7191  -6.6924  -6.6844  -6.6618  -6.6413
    -6.6341  -6.6119  -6.4993  -6.4972  -6.4850  -6.4811  -6.4752  -6.4229
    -6.2341  -6.2169  -6.2082  -6.2039  -6.1945  -6.1844  -5.9824  -5.9514
    -5.9361  -5.9264  -5.8840  -5.8795  -5.7895  -5.7712  -5.7135  -5.7015
    -5.6991  -5.6887  -5.6793  -5.6791  -5.6730  -5.6694  -5.6675  -5.6631
    -5.5950  -5.5816  -5.5748  -5.5681  -5.5658  -5.5632  -5.5615  -5.5540
    -5.5504  -5.5445  -5.5424  -5.4766  -5.3506  -5.3407  -5.3268  -5.3242
    -5.2251  -5.2106  -5.2081  -5.2065  -5.1845  -5.1821  -5.1752  -5.1567
    -5.1543  -5.1442  -5.1350  -5.1289  -5.1284  -5.1248  -5.1151  -5.1074
    -5.0998  -5.0976  -5.0834  -5.0764  -5.0697  -5.0646  -5.0631  -5.0611
    -5.0580  -5.0518  -5.0507  -5.0406  -5.0206  -5.0065  -5.0033  -4.9788
    -4.9720  -4.9670  -4.9592  -4.9558  -4.9533  -4.9510  -4.9466  -4.9444
    -4.9418  -4.9332  -4.9250  -4.8849  -4.8754  -4.8675  -4.7513  -4.7420
    -4.6908  -4.6894  -4.6882  -4.6876  -4.6692  -4.6512  -4.6371  -4.6173
    -4.6139  -4.5933  -4.5578  -4.5265  -4.5132  -4.4965  -4.4876  -4.4825
    -4.4755  -4.4510  -4.4492  -4.4328  -4.4288  -4.3980  -4.3760  -4.3479
    -4.2715  -4.2463  -4.2462  -4.2382  -4.2126  -4.1781  -4.1743  -4.1718
    -4.1515  -4.1473  -4.1471  -4.1446  -4.1113  -4.1068  -4.0961  -4.0616
    -4.0471  -4.0456  -4.0393  -4.0274  -3.9992  -3.7811  -3.7604  -3.6993
    -3.6733  -3.6483  -3.6337  -3.5918  -3.5320  -3.4198  -3.3876  -3.3829
    -3.3801  -3.3542  -3.3249  -3.3096  -3.2717  -3.2306  -3.2302  -3.2217
    -3.2082  -3.1914  -3.1770  -3.1432  -3.1306  -3.1208  -3.0969  -3.0908
    -3.0876  -3.0493  -3.0373  -3.0005  -2.9667  -2.9562  -2.9397  -2.9151
[...]
    -2.5860  -2.5535  -2.5407  -2.5301  -2.4823  -2.4703  -2.4440  -2.4430
    -2.4418  -2.4348  -2.4328  -2.4224  -2.4215  -2.4214  -2.4124  -2.4009
    -2.3935  -2.3864  -2.3862  -2.3800  -2.3765  -2.3702  -2.3615  -2.3576
    -2.3407  -2.3157  -2.3127  -2.3082  -2.3005  -2.2972  -2.2934  -2.2896
    -2.2833  -2.2775  -2.2738  -2.2603  -2.2497  -2.2446  -2.2393  -2.2364
    -2.2335  -2.2096  -2.2096  -2.2090  -2.1989  -2.1959  -2.1930  -2.1904
    -2.1897  -2.1896  -2.1704  -2.1558  -2.1506  -2.1404  -2.0927  -2.0710
    -2.0700  -2.0654  -2.0566  -2.0360  -2.0355  -2.0255  -2.0153  -2.0121
    -2.0075  -2.0059  -2.0004  -1.9997  -1.9994  -1.9965  -1.9894  -1.9894
    -1.9880  -1.9865  -1.9735  -1.9689  -1.9653  -1.9363  -1.9357  -1.9323
    -1.9286  -1.9245  -1.9218  -1.9189  -1.9093  -1.9055  -1.8984  -1.8927
    -1.8901  -1.8463  -1.8156  -1.8149  -1.8053  -1.8052  -1.7948  -1.7786
    -1.6375  -1.6056  -1.5994  -1.5863  -1.3988  -1.3835  -1.3780  -1.3754
    -1.3256  -1.3236  -1.3117  -1.2977  -1.2881  -1.2879  -1.2683  -1.2508
    -1.2227  -1.0386  -1.0092

     the Fermi energy is    -4.1331 ev

!    total energy              =  -21094.88479276 Ry
     estimated scf accuracy    <          5.4E-11 Ry
     smearing contrib. (-TS)   =       0.00025592 Ry
     internal energy E=F+TS    =  -21094.88504868 Ry

     The total energy is F=E-TS. E is the sum of the following terms:
     one-electron contribution = -744510.88249115 Ry
     hartree contribution      =  372094.38901899 Ry
     xc contribution           =   -2235.09693905 Ry
     ewald contribution        =  358431.53784887 Ry
     Dispersion Correction     =      -1.39533247 Ry
     one-center paw contrib.   =   -4873.43715387 Ry

     total magnetization       =   161.61 Bohr mag/cell
     absolute magnetization    =   168.09 Bohr mag/cell

     convergence has been achieved in  16 iterations

     negative rho (up, down):  1.179E-02 1.630E-02

     Forces acting on atoms (cartesian axes, Ry/au):

     atom    1 type  1   force =     0.00028533    0.00003377    0.01012540
     atom    2 type  1   force =    -0.00089388    0.00127289   -0.00535758
     atom    3 type  1   force =     0.00019676    0.00010973    0.00977636
     atom    4 type  1   force =    -0.00054189    0.00004717   -0.01081520
     atom    5 type  1   force =    -0.00000259   -0.00000727   -0.00005709
     atom    6 type  1   force =    -0.00000214    0.00000117   -0.00004143
     atom    7 type  1   force =     0.00001180   -0.00000163   -0.00005647
     atom    8 type  1   force =    -0.00001358    0.00002216   -0.00002897
     atom    9 type  1   force =     0.00000082    0.00001330    0.01001487
     atom   10 type  1   force =    -0.00016242   -0.00015336    0.00930427
     atom   11 type  1   force =     0.00012374   -0.00013584   -0.01068709
     atom   12 type  1   force =    -0.00028299   -0.00012040   -0.00986792
     atom   13 type  1   force =     0.00000318    0.00000006   -0.00008284
     atom   14 type  1   force =     0.00001948    0.00001434   -0.00008401
     atom   15 type  1   force =     0.00015049    0.00002737   -0.00003847
     atom   16 type  1   force =     0.00003628    0.00002445   -0.00006304
     atom   17 type  1   force =     0.00018937    0.00012733    0.00972415
     atom   18 type  1   force =    -0.00008702   -0.00051057   -0.01084073
     atom   19 type  1   force =    -0.00018643   -0.00013825    0.00971628
     atom   20 type  1   force =    -0.00000846    0.00002021   -0.00713914
     atom   21 type  1   force =     0.00000089    0.00000773   -0.00005670
     atom   22 type  1   force =     0.00001826   -0.00002306   -0.00003721
     atom   23 type  1   force =    -0.00000730    0.00000235   -0.00005629
     atom   24 type  1   force =    -0.00002861    0.00003804    0.00023423
     atom   25 type  1   force =     0.00002047   -0.00002700    0.00901897
     atom   26 type  1   force =     0.00004454   -0.00006950    0.00950514
     atom   27 type  1   force =     0.00006390   -0.00006130   -0.01121897
     atom   28 type  1   force =     0.00009679   -0.00015043   -0.01068212
     atom   29 type  1   force =    -0.00000160    0.00000031    0.00001730
     atom   30 type  1   force =     0.00001294   -0.00001792   -0.00007602
     atom   31 type  1   force =    -0.00012039   -0.00008536   -0.00003357
     atom   32 type  1   force =    -0.00007606   -0.00013552   -0.00003926
     atom   33 type  1   force =    -0.00028076   -0.00003274    0.01017720
     atom   34 type  1   force =     0.00051060   -0.00008048   -0.01083923
     atom   35 type  1   force =     0.00012637    0.00025547    0.01018659
     atom   36 type  1   force =     0.00079907   -0.00113592   -0.00533151
     atom   37 type  1   force =     0.00000562    0.00000801   -0.00005470
     atom   38 type  1   force =     0.00001503   -0.00002595   -0.00004002
     atom   39 type  1   force =    -0.00000939   -0.00000267   -0.00005408
     atom   40 type  1   force =    -0.00000286    0.00000285   -0.00003626
     atom   41 type  1   force =    -0.00002693    0.00004106    0.00751650
     atom   42 type  1   force =    -0.00006240    0.00008833    0.00948289
     atom   43 type  1   force =     0.00020237    0.00023837   -0.00985947
     atom   44 type  1   force =    -0.00014997    0.00014669   -0.01066429
     atom   45 type  1   force =     0.00000095   -0.00000009   -0.00008087
     atom   46 type  1   force =    -0.00001304    0.00001916   -0.00007616
     atom   47 type  1   force =    -0.00003713   -0.00002621   -0.00006430
     atom   48 type  1   force =    -0.00015230   -0.00002739   -0.00004097
     atom   49 type  1   force =    -0.00016611   -0.00015407    0.00978234
     atom   50 type  1   force =     0.00007267   -0.00010704   -0.00712159
     atom   51 type  1   force =    -0.00012322   -0.00026168    0.01013326
     atom   52 type  1   force =     0.00013134    0.00054211   -0.01081359
     atom   53 type  1   force =    -0.00000119   -0.00001179   -0.00005731
     atom   54 type  1   force =     0.00002535   -0.00003620    0.00023175
     atom   55 type  1   force =     0.00000806   -0.00000014   -0.00005650
     atom   56 type  1   force =    -0.00001682    0.00001983   -0.00002759
     atom   57 type  1   force =    -0.00001368    0.00000400    0.01002673
     atom   58 type  1   force =     0.00020064    0.00010108    0.00929975
     atom   59 type  1   force =    -0.00009111    0.00019202   -0.01067099
     atom   60 type  1   force =     0.00003270   -0.00006973   -0.01122489
     atom   61 type  1   force =    -0.00000116   -0.00000475   -0.00008367
     atom   62 type  1   force =    -0.00001982   -0.00001375   -0.00008399
     atom   63 type  1   force =     0.00007588    0.00013584   -0.00003813
     atom   64 type  1   force =     0.00011931    0.00008484   -0.00003240
     atom   65 type  2   force =    -0.00005894   -0.00003980   -0.00009481
     atom   66 type  3   force =     0.00002492    0.00000936   -0.00001616
     atom   67 type  3   force =     0.00001625    0.00001642   -0.00006973

     Total force =     0.000615     Total SCF correction =     0.000018
     Energy error            =      6.9E-07
     Gradient error          =      2.3E-04

     bfgs converged in   9 scf cycles and   8 bfgs steps
     (criteria: energy <  7.3E-07 Ry, force <  3.9E-04 Ry/Bohr)

     End of BFGS Geometry Optimization

     Final energy   =  -21094.8847927551 Ry

     File ./Fe_NH2_paper_480c_ESM_std.bfgs deleted, as requested
Begin final coordinates

ATOMIC_POSITIONS (angstrom)
Fe            1.6549129530        1.1702001330        0.0000000000    0   0   0
Fe            0.0000000000        0.0000000000        2.0269842320    0   0   0
Fe            4.9647388580        3.5106003990        0.0000000000    0   0   0
Fe            3.3098259060        2.3404002660        2.0269842320    0   0   0
Fe            1.6476585309        1.1677552855        4.0240374435
Fe            3.3031442831        9.3711450492        5.9999833362
Fe            4.9597686679        3.5149897172        4.0110662832
Fe            3.3038850446        2.3321688055        6.0008218301
Fe            2.4823638580        3.5106003990        0.0000000000    0   0   0
Fe            4.1372879530        1.1702001330        0.0000000000    0   0   0
Fe            0.8274509060        2.3404002660        2.0269842320    0   0   0
Fe            2.4823750000        0.0000000000        2.0269842320    0   0   0
Fe            2.4823766472        3.5105978576        4.0267238118
Fe            4.1292122305        1.1644981996        4.0176045902
Fe            0.8143161000        2.3449957865        5.9900955047
Fe            2.4777534724       -0.0031464325        6.0108453408
Fe            6.6196629530        1.1702001330        0.0000000000    0   0   0
Fe            4.9647500000        0.0000000000        2.0269842320    0   0   0
Fe            9.9294888580        3.5106003990        0.0000000000    0   0   0
Fe            8.2745759060        2.3404002660        2.0269842320    0   0   0
Fe            6.6221970868        1.1639977104        4.0111202483
Fe            4.9550156770       -0.0029555013        6.0005833123
Fe            9.9346224736        3.5061906319        4.0110902197
Fe            8.2790796624        2.3345040062        6.0838479686
Fe            7.4471138580        3.5106003990        0.0000000000    0   0   0
Fe            9.1020379530        1.1702001330        0.0000000000    0   0   0
Fe            5.7922009060        2.3404002660        2.0269842320    0   0   0
Fe            7.4471250000        0.0000000000        2.0269842320    0   0   0
Fe            7.4472671151        3.5105127774        4.0436866898
Fe            9.0913449433        1.1854038360        4.0470516954
Fe            5.7425554002        2.3052484563        5.9286401010
Fe           10.7571205507        9.3757692208        5.9901811319
Fe            3.3098147640        5.8510006640        0.0000000000    0   0   0
Fe            1.6549018110        4.6808005310        2.0269842320    0   0   0
Fe            6.6196406700        8.1914009300        0.0000000000    0   0   0
Fe            4.9647277170        7.0212007970        2.0269842320    0   0   0
Fe            3.3169471541        5.8536780891        4.0240540719
Fe           11.5905725184        4.6890965167        6.0005664000
Fe            6.6147953034        8.1856488723        4.0240148471
Fe            4.9711890398        7.0121367467        5.9996322479
Fe            4.1372656700        8.1914009300        0.0000000000    0   0   0
Fe            5.7921897640        5.8510006640        0.0000000000    0   0   0
Fe            2.4823527170        7.0212007970        2.0269842320    0   0   0
Fe            4.1372768110        4.6808005310        2.0269842320    0   0   0
Fe            4.1370690426        8.1917327927        4.0300325771
Fe            5.8028030754        5.8360780759        4.0469411257
Fe           12.4164466730        7.0246107498        6.0108389408
Fe            4.1506837799        4.6763866481        5.9903152564
Fe            8.2745647640        5.8510006640        0.0000000000    0   0   0
Fe            6.6196518110        4.6808005310        2.0269842320    0   0   0
Fe           11.5843906700        8.1914009300        0.0000000000    0   0   0
Fe            9.9294777170        7.0212007970        2.0269842320    0   0   0
Fe            8.2721872961        5.8572338667        4.0110274479
Fe            6.6159186806        4.6864057012        6.0835083091
Fe           11.5891652703        8.1974910746        4.0240625863
Fe            9.9393164862        7.0242206781        6.0007817634
Fe            9.1020156700        8.1914009300        0.0000000000    0   0   0
Fe           10.7569397640        5.8510006640        0.0000000000    0   0   0
Fe            7.4471027170        7.0212007970        2.0269842320    0   0   0
Fe            9.1020268110        4.6808005310        2.0269842320    0   0   0
Fe            9.1020843276        8.1914967763        4.0267001900
Fe           10.7651073494        5.8567628817        4.0176072623
Fe            7.4468888360        7.0072702577        5.9902313603
Fe            9.1518882790        4.7160409817        5.9285655909
N             7.4482823013        3.5112506489        7.4761006409
H             8.1113657108        3.9806120876        8.1077751941
H             6.7852491194        3.0423278763        8.1082182056
End final coordinates

     Writing output data file ./Fe_NH2_paper_480c_ESM_std.save/

     General routines

     Parallel routines

   This run was terminated on:  22:39: 5   8Jul2022

   JOB DONE.