     Program PWSCF v.6.4.1 starts on 12Jun2022 at 21: 0:43

     K-points division:     npool     =       8
     R & G space division:  proc/nbgrp/npool/nimage =      20
     Waiting for input...
     Reading input from standard input
Warning: card &CELL ignored
Warning: card / ignored

     Current dimensions of program PWSCF are:
     Max number of different atomic species (ntypx) = 10
     Max number of k-points (npk) =  40000
     Max angular momentum in pseudopotentials (lmaxx) =  3

     IMPORTANT: XC functional enforced from input :
     Exchange-correlation      = PBE ( 1  4  3  4 0 0)
     Any further DFT definition will be discarded
     Please, verify this is what you really want

               file Fe.pbe-spn-kjpaw_psl.0.2.1.UPF: wavefunction(s)  3D renormalized

     Parameters for Dispersion (Grimme-D2) Correction:
       atom      VdW radius       C_6

        Fe         2.952        374.666

     bravais-lattice index     =            0
     lattice parameter (alat)  =      18.7640  a.u.
     unit-cell volume          =   16360.3163 (a.u.)^3
     number of atoms/cell      =           64
     number of atomic types    =            1
     number of electrons       =      1024.00
     number of Kohn-Sham states=          614
     kinetic-energy cutoff     =      60.0000  Ry
     charge density cutoff     =     480.0000  Ry
     convergence threshold     =      1.0E-08
     mixing beta               =       0.2000
     number of iterations used =           10  local-TF  mixing
     Exchange-correlation      = PBE ( 1  4  3  4 0 0)
     nstep                     =           50

     Effective Screening Medium Method
     Boundary Conditions: Metal-Slab-Metal
     field strength                   =    -0.01 Ry/a.u.
     grid points for fit at edges     =        4

     celldm(1)=  18.764036  celldm(2)=   0.000000  celldm(3)=   0.000000
     celldm(4)=   0.000000  celldm(5)=   0.000000  celldm(6)=   0.000000

     crystal axes: (cart. coord. in units of alat)
               a(1) = (   1.000000   0.000000   0.000000 )
               a(2) = (   0.333330   0.942807   0.000000 )
               a(3) = (   0.000000   0.000000   2.626577 )

     reciprocal axes: (cart. coord. in units 2 pi/alat)
               b(1) = (  1.000000 -0.353551  0.000000 )
               b(2) = (  0.000000  1.060663  0.000000 )
               b(3) = (  0.000000  0.000000  0.380724 )

     PseudoPot. # 1 for Fe read from file:
     ../SSSP/Fe.pbe-spn-kjpaw_psl.0.2.1.UPF
     MD5 check sum: e86618425769142926afa95317d90200
     Pseudo is Projector augmented-wave + core cor, Zval = 16.0
     Generated using "atomic" code by A. Dal Corso v.5.0.99 svn rev. 10869
     Shape of augmentation charge: PSQ
     Using radial grid of 1191 points,  6 beta functions with:
                l(1) =   0
                l(2) =   0
                l(3) =   1
                l(4) =   1
                l(5) =   2
                l(6) =   2
     Q(r) pseudized with 0 coefficients

     atomic species   valence    mass     pseudopotential
        Fe            16.00    55.84500     Fe( 1.00)

     Starting magnetic structure
     atomic species   magnetization
        Fe           0.100

     No symmetry found

   Cartesian axes

     site n.     atom                  positions (alat units)
         1           Fe  tau(   1) = (   0.1666663   0.1178509   0.0000000  )
         2           Fe  tau(   2) = (   0.0000000   0.0000000   0.2041376  )
         3           Fe  tau(   3) = (   0.4999989   0.3535526   0.0000000  )
         4           Fe  tau(   4) = (   0.3333326   0.2357017   0.2041376  )
         5           Fe  tau(   5) = (   0.1666883   0.1178565   0.4055485  )
         6           Fe  tau(   6) = (   0.3333688   0.9428184   0.6047447  )
         7           Fe  tau(   7) = (   0.5000206   0.3535572   0.4055456  )
         8           Fe  tau(   8) = (   0.3333470   0.2357998   0.6047191  )
         9           Fe  tau(   9) = (   0.2499989   0.3535526   0.0000000  )
        10           Fe  tau(  10) = (   0.4166663   0.1178509   0.0000000  )
        11           Fe  tau(  11) = (   0.0833326   0.2357017   0.2041376  )
        12           Fe  tau(  12) = (   0.2500000   0.0000000   0.2041376  )
        13           Fe  tau(  13) = (   0.2500056   0.3535711   0.4054970  )
        14           Fe  tau(  14) = (   0.4166800   0.1178886   0.4055435  )
        15           Fe  tau(  15) = (   0.0833671   0.2357290   0.6047215  )
        16           Fe  tau(  16) = (   0.2500711   0.0000921   0.6047608  )
        17           Fe  tau(  17) = (   0.6666663   0.1178509   0.0000000  )
        18           Fe  tau(  18) = (   0.5000000   0.0000000   0.2041376  )
        19           Fe  tau(  19) = (   0.9999989   0.3535526   0.0000000  )
        20           Fe  tau(  20) = (   0.8333326   0.2357017   0.2041376  )
        21           Fe  tau(  21) = (   0.6666909   0.1178765   0.4055642  )
        22           Fe  tau(  22) = (   0.5000465   0.0000236   0.6046761  )
        23           Fe  tau(  23) = (   1.0000109   0.3535665   0.4055626  )
        24           Fe  tau(  24) = (   0.8333753   0.2357096   0.6046948  )
        25           Fe  tau(  25) = (   0.7499989   0.3535526   0.0000000  )
        26           Fe  tau(  26) = (   0.9166663   0.1178509   0.0000000  )
        27           Fe  tau(  27) = (   0.5833326   0.2357017   0.2041376  )
        28           Fe  tau(  28) = (   0.7500000   0.0000000   0.2041376  )
        29           Fe  tau(  29) = (   0.7500298   0.3535537   0.4055237  )
        30           Fe  tau(  30) = (   0.9166973   0.1178520   0.4055727  )
        31           Fe  tau(  31) = (   0.5833528   0.2357440   0.6048152  )
        32           Fe  tau(  32) = (   1.0833550   0.9428301   0.6047230  )
        33           Fe  tau(  33) = (   0.3333315   0.5892543   0.0000000  )
        34           Fe  tau(  34) = (   0.1666652   0.4714034   0.2041376  )
        35           Fe  tau(  35) = (   0.6666640   0.8249560   0.0000000  )
        36           Fe  tau(  36) = (   0.4999978   0.7071052   0.2041376  )
        37           Fe  tau(  37) = (   0.3333024   0.5893238   0.4055334  )
        38           Fe  tau(  38) = (   1.1666931   0.4714090   0.6046775  )
        39           Fe  tau(  39) = (   0.6666498   0.8250381   0.4055339  )
        40           Fe  tau(  40) = (   0.4999795   0.7072006   0.6047873  )
        41           Fe  tau(  41) = (   0.4166640   0.8249560   0.0000000  )
        42           Fe  tau(  42) = (   0.5833315   0.5892543   0.0000000  )
        43           Fe  tau(  43) = (   0.2499978   0.7071052   0.2041376  )
        44           Fe  tau(  44) = (   0.4166652   0.4714034   0.2041376  )
        45           Fe  tau(  45) = (   0.4166645   0.8250008   0.4055405  )
        46           Fe  tau(  46) = (   0.5833194   0.5893164   0.4055538  )
        47           Fe  tau(  47) = (   1.2499531   0.7071110   0.6047598  )
        48           Fe  tau(  48) = (   0.4166762   0.4714800   0.6046684  )
        49           Fe  tau(  49) = (   0.8333315   0.5892543   0.0000000  )
        50           Fe  tau(  50) = (   0.6666652   0.4714034   0.2041376  )
        51           Fe  tau(  51) = (   1.1666640   0.8249560   0.0000000  )
        52           Fe  tau(  52) = (   0.9999978   0.7071052   0.2041376  )
        53           Fe  tau(  53) = (   0.8333620   0.5892670   0.4055440  )
        54           Fe  tau(  54) = (   0.6666665   0.4714716   0.6046004  )
        55           Fe  tau(  55) = (   1.1666930   0.8249675   0.4055502  )
        56           Fe  tau(  56) = (   0.9999653   0.7071693   0.6047169  )
        57           Fe  tau(  57) = (   0.9166640   0.8249560   0.0000000  )
        58           Fe  tau(  58) = (   1.0833315   0.5892543   0.0000000  )
        59           Fe  tau(  59) = (   0.7499978   0.7071052   0.2041376  )
        60           Fe  tau(  60) = (   0.9166652   0.4714034   0.2041376  )
        61           Fe  tau(  61) = (   0.9166861   0.8249876   0.4054965  )
        62           Fe  tau(  62) = (   1.0833354   0.5892828   0.4055429  )
        63           Fe  tau(  63) = (   0.7499872   0.7071671   0.6046676  )
        64           Fe  tau(  64) = (   0.9166845   0.4714443   0.6048084  )

     number of k points=    10  Methfessel-Paxton smearing, width (Ry)=  0.0100
                       cart. coord. in units 2pi/alat
        k(    1) = (   0.0000000   0.0000000   0.0000000), wk =   0.0625000
        k(    2) = (   0.0000000   0.2651656   0.0000000), wk =   0.1250000
        k(    3) = (   0.0000000  -0.5303313   0.0000000), wk =   0.0625000
        k(    4) = (   0.2500000  -0.0883878   0.0000000), wk =   0.1250000
        k(    5) = (   0.2500000   0.1767779   0.0000000), wk =   0.1250000
        k(    6) = (   0.2500000  -0.6187190   0.0000000), wk =   0.1250000
        k(    7) = (   0.2500000  -0.3535534   0.0000000), wk =   0.1250000
        k(    8) = (  -0.5000000   0.1767755   0.0000000), wk =   0.0625000
        k(    9) = (  -0.5000000   0.4419412   0.0000000), wk =   0.1250000
        k(   10) = (  -0.5000000  -0.3535558   0.0000000), wk =   0.0625000

     Check: negative core charge=   -0.000039

     Initial potential from superposition of free atoms

     starting charge 1023.97194, renormalised to 1024.00000

     negative rho (up, down):  2.482E-02 2.555E-03
     Starting wfcs are  832 randomized atomic wfcs
     Checking if some PAW data can be deallocated...

     Self-consistent Calculation

     iteration #  1     ecut=    60.00 Ry     beta= 0.20
     Davidson diagonalization with overlap
     c_bands:  1 eigenvalues not converged
     c_bands:  2 eigenvalues not converged
     ethr =  1.00E-04,  avg # of iterations = 19.0

     negative rho (up, down):  1.308E-02 3.492E-03

     total energy              =  -21066.98184118 Ry
     Harris-Foulkes estimate   =  -21074.09732261 Ry
     estimated scf accuracy    <     352.45062367 Ry

     total magnetization       =   106.95 Bohr mag/cell
     absolute magnetization    =   107.85 Bohr mag/cell

     iteration #  2     ecut=    60.00 Ry     beta= 0.20
     Davidson diagonalization with overlap
     ethr =  1.00E-02,  avg # of iterations =  1.0

[...]

     iteration # 47     ecut=    60.00 Ry     beta= 0.20
     Davidson diagonalization with overlap
     c_bands:  1 eigenvalues not converged
     ethr =  4.25E-11,  avg # of iterations = 11.2

[...]

     total energy              =  -21072.23973432 Ry
     Harris-Foulkes estimate   =  -21072.23974226 Ry
     estimated scf accuracy    <       0.00000002 Ry

[...]

     iteration # 53     ecut=    60.00 Ry     beta= 0.20
     Davidson diagonalization with overlap
     ethr =  1.62E-12,  avg # of iterations =  8.0

[...]

     Magnetic moment per site:
     atom:    1    charge:   14.2641    magn:    2.6645    constr:    0.0000
     atom:    2    charge:   14.3386    magn:    2.4380    constr:    0.0000
     atom:    3    charge:   14.2640    magn:    2.6645    constr:    0.0000
     atom:    4    charge:   14.3388    magn:    2.4378    constr:    0.0000
[...]
    -8.0600  -8.0594  -8.0491  -8.0442  -8.0383  -8.0381  -8.0181  -8.0177
    -8.0177  -8.0176  -7.9749  -7.9742  -7.9742  -7.9734  -7.9733  -7.9692
    -7.9691  -7.9637  -7.9634  -7.9633  -7.9633  -7.9479  -7.9177  -7.9175
    -7.9175  -7.9173  -7.8608  -7.8556  -7.8556  -7.8555  -7.8554  -7.8313
    -7.8310  -7.8201  -7.8200  -7.7049  -7.7049  -7.6961  -7.6961  -7.6960
    -7.6959  -7.6722  -7.6721  -7.6692  -7.6691  -7.6690  -7.6688  -7.6614
    -7.6334  -7.6334  -7.6333  -7.6331  -7.6094  -7.6092  -7.6070  -7.6069
    -7.5873  -7.5129  -7.5128  -7.2280  -7.2049  -7.1759  -7.1758  -7.1596
    -7.1594  -7.0863  -7.0861  -7.0861  -7.0860  -7.0144  -7.0138  -6.9477
    -6.9476  -6.9475  -6.9474  -6.8812  -6.8809  -6.8807  -6.8807  -6.8674
    -6.8533  -6.8290  -6.7268  -6.6581  -6.6581  -6.6221  -6.5455  -6.5454
    -6.5431  -6.1029  -5.9344  -5.9343  -5.9010  -5.9009  -5.8832  -5.8829
    -5.7250  -4.9799  -4.9798  -4.9657  -4.9275  -4.9274

[...]

          k =-0.5000 0.1768 0.0000 (128388 PWs)   bands (ev):

[...]

 ------ SPIN DOWN ----------

[...]

          k = 0.2500-0.3536 0.0000 (128397 PWs)   bands (ev):

[...]

          k =-0.5000-0.3536 0.0000 (128560 PWs)   bands (ev):

   -92.0877 -92.0877 -92.0795 -92.0794 -92.0532 -92.0531 -92.0530 -92.0530
   -92.0479 -92.0479 -92.0468 -92.0467 -92.0409 -92.0408 -92.0407 -92.0407
   -92.0368 -92.0367 -92.0275 -92.0274 -92.0273 -92.0273 -92.0268 -92.0268
   -92.0249 -92.0249 -92.0248 -92.0247 -92.0033 -92.0032 -92.0032 -92.0031
   -91.9912 -91.9912 -91.9911 -91.9910 -91.9854 -91.9853 -91.9852 -91.9851
   -91.9694 -91.9694 -91.9692 -91.9692 -91.9692 -91.9692 -91.9691 -91.9690
   -91.9631 -91.9631 -91.9631 -91.9631 -91.9626 -91.9626 -91.9626 -91.9626
   -91.9472 -91.9471 -91.9471 -91.9471 -91.9414 -91.9414 -91.9409 -91.9409
   -58.3389 -58.3388 -58.3387 -58.3387 -58.3289 -58.3287 -58.3287 -58.3286
   -58.3266 -58.3265 -58.3223 -58.3222 -58.3210 -58.3209 -58.3139 -58.3138
   -58.3137 -58.3136 -58.3055 -58.3055 -58.3054 -58.3053 -58.2977 -58.2977
   -58.2850 -58.2850 -58.2848 -58.2848 -58.2786 -58.2786 -58.2619 -58.2618
   -58.2568 -58.2568 -58.2489 -58.2488 -58.2488 -58.2487 -58.2469 -58.2468
   -58.2468 -58.2467 -58.2388 -58.2387 -58.2387 -58.2386 -58.2377 -58.2376
   -58.2376 -58.2376 -58.2348 -58.2348 -58.2309 -58.2309 -58.2262 -58.2261
   -58.2243 -58.2243 -58.2225 -58.2225 -58.2225 -58.2224 -58.1871 -58.1870
   -58.1759 -58.1759 -58.1758 -58.1758 -58.1750 -58.1749 -58.1647 -58.1647
   -58.1641 -58.1640 -58.1467 -58.1467 -58.1290 -58.1290 -58.1289 -58.1289
   -58.1284 -58.1283 -58.1276 -58.1276 -58.1183 -58.1183 -58.1183 -58.1183
   -58.1159 -58.1159 -58.1158 -58.1157 -58.1008 -58.1008 -58.0984 -58.0984
   -58.0934 -58.0934 -58.0933 -58.0933 -58.0854 -58.0853 -58.0844 -58.0844
   -58.0844 -58.0844 -58.0745 -58.0745 -58.0745 -58.0744 -58.0711 -58.0710
   -58.0628 -58.0628 -58.0595 -58.0594 -58.0496 -58.0496 -58.0492 -58.0492
   -58.0492 -58.0491 -58.0423 -58.0423 -58.0340 -58.0339 -58.0333 -58.0333
   -58.0266 -58.0266 -58.0241 -58.0241 -58.0193 -58.0192 -58.0192 -58.0192
   -58.0169 -58.0169 -58.0166 -58.0166 -58.0166 -58.0165 -58.0124 -58.0124
   -58.0124 -58.0124 -58.0101 -58.0100 -58.0052 -58.0051 -58.0018 -58.0018
   -58.0017 -58.0017 -57.9954 -57.9954 -57.9944 -57.9944 -57.9941 -57.9941
   -57.9941 -57.9940 -57.9924 -57.9924 -57.9924 -57.9923 -57.9874 -57.9873
   -57.9873 -57.9873 -57.9824 -57.9824 -57.9811 -57.9811 -57.9810 -57.9810
   -57.9809 -57.9808 -57.9808 -57.9808 -57.9709 -57.9709 -57.9662 -57.9662
   -57.9661 -57.9661 -57.9652 -57.9652 -57.9617 -57.9617 -57.9609 -57.9608
   -14.0426 -14.0425 -13.4574 -13.4574 -12.7479 -12.7478 -12.2045 -12.2044
   -11.4546 -11.4546 -11.4545 -11.4544 -11.0429 -11.0427 -10.6053 -10.6052
   -10.6043 -10.6042 -10.6042 -10.6042 -10.5070 -10.5070 -10.4718 -10.4718
   -10.4717 -10.4716 -10.0438 -10.0436 -10.0428 -10.0427 -10.0426 -10.0426
    -9.8328  -9.8328  -9.5738  -9.5737  -9.5396  -9.5395  -9.5394  -9.5392
    -9.4825  -9.4824  -9.4387  -9.4387  -9.4387  -9.4386  -9.2815  -9.2813
    -9.2708  -9.2706  -9.2512  -9.2510  -9.0067  -9.0063  -8.9878  -8.9878
    -8.9877  -8.9877  -8.7681  -8.7680  -8.7179  -8.7177  -8.6678  -8.6677
    -8.5608  -8.5606  -8.4805  -8.4805  -8.4801  -8.4800  -8.4705  -8.4704
    -8.4550  -8.4546  -8.4469  -8.4464  -8.3468  -8.3468  -8.3467  -8.3466
    -8.3409  -8.3407  -8.3405  -8.3405  -8.3339  -8.3338  -8.3337  -8.3336
    -8.1209  -8.1208  -8.1139  -8.1139  -7.9822  -7.9820  -7.9818  -7.9817
    -7.9662  -7.9660  -7.9188  -7.9186  -7.9185  -7.9184  -7.9081  -7.9080
    -7.9069  -7.9067  -7.8806  -7.8806  -7.8803  -7.8803  -7.8485  -7.8485
    -7.8483  -7.8481  -7.8434  -7.8434  -7.8434  -7.8434  -7.8392  -7.8389
    -7.7930  -7.7928  -7.7926  -7.7924  -7.7347  -7.7347  -7.7345  -7.7345
    -7.7344  -7.7344  -7.7342  -7.7341  -7.7313  -7.7309  -7.7154  -7.7149
    -7.6561  -7.6559  -7.5234  -7.5232  -7.4614  -7.4613  -7.4612  -7.4611
    -7.4396  -7.4394  -7.4014  -7.4013  -7.4012  -7.4011  -7.2951  -7.2951
    -7.2775  -7.2775  -7.2774  -7.2773  -7.2731  -7.2728  -7.2228  -7.2225
    -7.2148  -7.2147  -7.1718  -7.1716  -7.0327  -7.0327  -7.0196  -7.0196
    -6.9506  -6.9505  -6.9439  -6.9437  -6.9209  -6.9208  -6.9207  -6.9207
    -6.9139  -6.9138  -6.8888  -6.8886  -6.8247  -6.8247  -6.8247  -6.8246
    -6.8003  -6.8001  -6.5516  -6.5515  -6.4764  -6.4757  -6.4338  -6.4332
    -6.3654  -6.3653  -6.1838  -6.1836  -6.1647  -6.1645  -6.1150  -6.1148
    -6.0412  -6.0411  -6.0055  -6.0054  -6.0051  -6.0049  -5.9292  -5.9289
    -5.9262  -5.9262  -5.8811  -5.8811  -5.8713  -5.8711  -5.7693  -5.7693
    -5.7654  -5.7653  -5.7651  -5.7650  -5.6656  -5.6656  -5.6654  -5.6653
[...]
    -5.4936  -5.4934  -5.4596  -5.4594  -5.4164  -5.4163  -5.3645  -5.3642
    -5.3072  -5.3072  -5.2273  -5.2273  -5.2236  -5.2235  -5.2234  -5.2233
    -5.2216  -5.2214  -5.2049  -5.2049  -5.1771  -5.1770  -5.1658  -5.1657
    -5.1655  -5.1654  -5.1613  -5.1612  -5.1612  -5.1612  -5.1359  -5.1357
    -5.0860  -5.0860  -5.0857  -5.0855  -5.0844  -5.0840  -5.0632  -5.0629
    -5.0595  -5.0589  -5.0550  -5.0548  -5.0240  -5.0239  -5.0116  -5.0115
    -4.9904  -4.9903  -4.9903  -4.9902  -4.9803  -4.9802  -4.9752  -4.9751
    -4.9750  -4.9750  -4.9646  -4.9644  -4.9358  -4.9358  -4.8693  -4.8692
    -4.8539  -4.8538  -4.8326  -4.8323  -4.8236  -4.8234  -4.7889  -4.7888
    -4.7888  -4.7887  -4.7881  -4.7881  -4.7881  -4.7881  -4.7737  -4.7736
    -4.7701  -4.7701  -4.7700  -4.7700  -4.7623  -4.7622  -4.7182  -4.7182
    -4.7082  -4.7081  -4.7081  -4.7079  -4.6942  -4.6942  -4.6858  -4.6856
    -4.6855  -4.6854  -4.5954  -4.5953  -4.5917  -4.5917  -4.5917  -4.5915
    -4.4165  -4.4161  -4.3788  -4.3788  -4.1664  -4.1663  -4.1663  -4.1663
    -4.0948  -4.0947  -4.0945  -4.0944  -4.0772  -4.0771

     the Fermi energy is    -6.9345 ev

!    total energy              =  -21072.23974924 Ry
     Harris-Foulkes estimate   =  -21072.23973433 Ry
     estimated scf accuracy    <          5.1E-09 Ry

     total all-electron energy =   -162915.218021 Ry

     The total energy is the sum of the following terms:

     one-electron contribution = -737720.89252232 Ry
     hartree contribution      =  368593.88749932 Ry
     xc contribution           =   -2228.22541225 Ry
     ewald contribution        =  355157.78721247 Ry
     Dispersion Correction     =      -1.37062179 Ry
     one-center paw contrib.   =   -4873.42568083 Ry
     smearing contrib. (-TS)   =      -0.00022384 Ry

     total magnetization       =   162.91 Bohr mag/cell
     absolute magnetization    =   169.27 Bohr mag/cell

     convergence has been achieved in  53 iterations

     negative rho (up, down):  2.496E-02 1.871E-02

     Forces acting on atoms (cartesian axes, Ry/au):

     atom    1 type  1   force =     0.00000417    0.00000595    0.00911094
     atom    2 type  1   force =    -0.00000770    0.00003039   -0.00925401
     atom    3 type  1   force =    -0.00000432   -0.00000876    0.00918553
     atom    4 type  1   force =    -0.00001169   -0.00002428   -0.00929525
     atom    5 type  1   force =    -0.00006422    0.00002495    0.00010911
     atom    6 type  1   force =    -0.00000264   -0.00001063   -0.00009211
     atom    7 type  1   force =    -0.00003057    0.00002383    0.00007986
     atom    8 type  1   force =     0.00003338   -0.00003482   -0.00003637
     atom    9 type  1   force =    -0.00001582    0.00001998    0.00917171
     atom   10 type  1   force =     0.00001370   -0.00001837    0.00917356
     atom   11 type  1   force =    -0.00001248   -0.00007027   -0.00923311
     atom   12 type  1   force =    -0.00008350    0.00004836   -0.00928876
     atom   13 type  1   force =    -0.00000626   -0.00001842    0.00019181
     atom   14 type  1   force =    -0.00001917   -0.00001637    0.00010275
     atom   15 type  1   force =    -0.00001278   -0.00002004   -0.00002034
     atom   16 type  1   force =    -0.00008603   -0.00006948   -0.00007272
     atom   17 type  1   force =     0.00001738   -0.00002636    0.00912579
     atom   18 type  1   force =    -0.00001171    0.00004185   -0.00927553
     atom   19 type  1   force =     0.00001962   -0.00002415    0.00912525
     atom   20 type  1   force =     0.00010600   -0.00013000   -0.00921677
     atom   21 type  1   force =     0.00002196   -0.00003313    0.00009401
     atom   22 type  1   force =    -0.00000544    0.00002177   -0.00006509
     atom   23 type  1   force =     0.00001096   -0.00003536    0.00009392
     atom   24 type  1   force =    -0.00002474    0.00002100    0.00002590
     atom   25 type  1   force =     0.00002143   -0.00002912    0.00919491
     atom   26 type  1   force =     0.00001610   -0.00002048    0.00909759
     atom   27 type  1   force =     0.00005085   -0.00004937   -0.00919788
     atom   28 type  1   force =     0.00008827    0.00000199   -0.00923037
     atom   29 type  1   force =     0.00000384   -0.00001021    0.00011406
     atom   30 type  1   force =     0.00002639   -0.00004496   -0.00003147
     atom   31 type  1   force =     0.00003295   -0.00000116   -0.00016564
     atom   32 type  1   force =     0.00000822   -0.00000339   -0.00001844
     atom   33 type  1   force =    -0.00001840    0.00003608    0.00912163
     atom   34 type  1   force =    -0.00001361    0.00003825   -0.00927680
     atom   35 type  1   force =    -0.00002530    0.00003129    0.00911995
     atom   36 type  1   force =    -0.00007656    0.00012839   -0.00922007
     atom   37 type  1   force =     0.00007070   -0.00004610    0.00012484
     atom   38 type  1   force =    -0.00003309    0.00000454   -0.00006618
     atom   39 type  1   force =     0.00001299   -0.00008921    0.00012313
     atom   40 type  1   force =    -0.00000552   -0.00000477   -0.00011575
     atom   41 type  1   force =    -0.00001860    0.00002883    0.00911029
     atom   42 type  1   force =    -0.00002026    0.00003156    0.00919046
     atom   43 type  1   force =    -0.00000010    0.00010859   -0.00928682
     atom   44 type  1   force =    -0.00003694    0.00007472   -0.00919956
     atom   45 type  1   force =    -0.00000153   -0.00000829    0.00014748
     atom   46 type  1   force =    -0.00003665    0.00004348   -0.00001790
     atom   47 type  1   force =     0.00007994    0.00004919   -0.00007091
     atom   48 type  1   force =     0.00000006    0.00000546   -0.00000432
     atom   49 type  1   force =     0.00001371    0.00000398    0.00918677
     atom   50 type  1   force =    -0.00001351    0.00003899   -0.00918388
     atom   51 type  1   force =    -0.00000377   -0.00000032    0.00911331
     atom   52 type  1   force =     0.00004637    0.00001760   -0.00929400
     atom   53 type  1   force =    -0.00002055    0.00002661    0.00007971
     atom   54 type  1   force =     0.00002778   -0.00005303    0.00002615
     atom   55 type  1   force =    -0.00000766    0.00006303    0.00010725
     atom   56 type  1   force =     0.00000905   -0.00005267   -0.00003513
     atom   57 type  1   force =    -0.00001129    0.00002374    0.00916956
     atom   58 type  1   force =     0.00001474   -0.00001683    0.00917322
     atom   59 type  1   force =    -0.00003909    0.00007599   -0.00920119
     atom   60 type  1   force =     0.00005025   -0.00005052   -0.00919951
     atom   61 type  1   force =     0.00000958   -0.00000514    0.00019185
     atom   62 type  1   force =     0.00001238    0.00000577    0.00010595
     atom   63 type  1   force =    -0.00001738   -0.00000846   -0.00000617
     atom   64 type  1   force =    -0.00002390   -0.00004170   -0.00016019

     Total force =     0.000624     Total SCF correction =     0.000051

     BFGS Geometry Optimization

     bfgs converged in   1 scf cycles and   0 bfgs steps
     (criteria: energy <  7.3E-07 Ry, force <  3.9E-04 Ry/Bohr)

     End of BFGS Geometry Optimization

     Final energy   =  -21072.2397492409 Ry
Begin final coordinates

ATOMIC_POSITIONS (angstrom)
Fe       1.654912953   1.170200133   0.000000000    0   0   0
Fe       0.000000000   0.000000000   2.026984232    0   0   0
Fe       4.964738858   3.510600399   0.000000000    0   0   0
Fe       3.309825906   2.340400266   2.026984232    0   0   0
Fe       1.655131513   1.170255800   4.026893789
Fe       3.310185890   9.361715274   6.004812258
Fe       4.964954072   3.510645742   4.026864800
Fe       3.309968878   2.341373774   6.004558667
Fe       2.482363858   3.510600399   0.000000000    0   0   0
Fe       4.137287953   1.170200133   0.000000000    0   0   0
Fe       0.827450906   2.340400266   2.026984232    0   0   0
Fe       2.482375000   0.000000000   2.026984232    0   0   0
Fe       2.482431022   3.510784594   4.026382395
Fe       4.137423723   1.170575205   4.026844020
Fe       0.827793995   2.340671494   6.004582483
Fe       2.483081194   0.000914643   6.004972519
Fe       6.619662953   1.170200133   0.000000000    0   0   0
Fe       4.964750000   0.000000000   2.026984232    0   0   0
Fe       9.929488858   3.510600399   0.000000000    0   0   0
Fe       8.274575906   2.340400266   2.026984232    0   0   0
Fe       6.619907777   1.170455049   4.027049583
Fe       4.965211570   0.000234207   6.004131526
Fe       9.929608704   3.510738088   4.027034307
Fe       8.275000021   2.340478798   6.004316858
Fe       7.447113858   3.510600399   0.000000000    0   0   0
Fe       9.102037953   1.170200133   0.000000000    0   0   0
Fe       5.792200906   2.340400266   2.026984232    0   0   0
Fe       7.447125000   0.000000000   2.026984232    0   0   0
Fe       7.447420479   3.510611505   4.026647087
Fe       9.102346018   1.170211882   4.027134491
Fe       5.792401460   2.340819564   6.005512548
Fe      10.757173775   9.361831542   6.004597452
Fe       3.309814764   5.851000664   0.000000000    0   0   0
Fe       1.654901811   4.680800531   2.026984232    0   0   0
Fe       6.619640670   8.191400930   0.000000000    0   0   0
Fe       4.964727717   7.021200797   2.026984232    0   0   0
Fe       3.309526336   5.851690833   4.026744262
Fe      11.584679108   4.680855349   6.004144765
Fe       6.619499617   8.192215343   4.026748908
Fe       4.964546232   7.022148233   6.005235814
Fe       4.137265670   8.191400930   0.000000000    0   0   0
Fe       5.792189764   5.851000664   0.000000000    0   0   0
Fe       2.482352717   7.021200797   2.026984232    0   0   0
Fe       4.137276811   4.680800531   2.026984232    0   0   0
Fe       4.137270576   8.191845130   4.026814179
Fe       5.792069812   5.851617064   4.026946478
Fe      12.411409722   7.021258406   6.004962008
Fe       4.137385969   4.681560913   6.004055304
Fe       8.274564764   5.851000664   0.000000000    0   0   0
Fe       6.619651811   4.680800531   2.026984232    0   0   0
Fe      11.584390670   8.191400930   0.000000000    0   0   0
Fe       9.929477717   7.021200797   2.026984232    0   0   0
Fe       8.274868094   5.851126765   4.026848823
Fe       6.619665354   4.681477222   6.003380070
Fe      11.584678547   8.191514616   4.026910800
Fe       9.929155900   7.021837365   6.004536714
Fe       9.102015670   8.191400930   0.000000000    0   0   0
Fe      10.756939764   5.851000664   0.000000000    0   0   0
Fe       7.447102717   7.021200797   2.026984232    0   0   0
Fe       9.102026811   4.680800531   2.026984232    0   0   0
Fe       9.102234964   8.191714800   4.026377367
Fe      10.756978908   5.851283372   4.026838019
Fe       7.446997598   7.021815629   6.004046457
Fe       9.102218468   4.681205756   6.005444946
End final coordinates

     Writing output data file Fe_paper_480c_ESM_pn25.save/

     General routines

     Parallel routines

   This run was terminated on:   3: 2:11  13Jun2022

   JOB DONE.