     Program PWSCF v.6.7MaX starts on 16Jun2022 at 19:29:45

     K-points division:     npool     =       8
     R & G space division:  proc/nbgrp/npool/nimage =      32
     Waiting for input...
     Reading input from standard input
Warning: card &CELL ignored
Warning: card / ignored

     Current dimensions of program PWSCF are:
     Max number of different atomic species (ntypx) = 10
     Max number of k-points (npk) =  40000
     Max angular momentum in pseudopotentials (lmaxx) =  3
     file Fe.pbe-spn-kjpaw_psl.0.2.1.UPF: wavefunction(s)  3D renormalized

     IMPORTANT: XC functional enforced from input :
     Exchange-correlation= PBE
                           (   1   4   3   4   0   0   0)
     Any further DFT definition will be discarded
     Please, verify this is what you really want

     Parameters for Dispersion (Grimme-D2) Correction:
       atom      VdW radius       C_6

        Fe         2.952        374.666
        N          2.640         42.670
        H          1.892          4.857

     bravais-lattice index     =            0
     lattice parameter (alat)  =      18.7640  a.u.
     unit-cell volume          =   16360.3161 (a.u.)^3
     number of atoms/cell      =           67
     number of atomic types    =            3
     number of electrons       =      1031.00
     number of Kohn-Sham states=          619
     kinetic-energy cutoff     =      60.0000  Ry
     charge density cutoff     =     480.0000  Ry
     scf convergence threshold =      1.0E-08
     mixing beta               =       0.2000
     number of iterations used =           10  local-TF  mixing
     energy convergence thresh.=      7.3E-07
     force convergence thresh. =      3.9E-04
     Exchange-correlation= PBE
                           (   1   4   3   4   0   0   0)
     nstep                     =           50

     Effective Screening Medium Method
     Boundary Conditions: Metal-Slab-Metal
     field strength                   =     0.02 Ry/a.u.
     grid points for fit at edges     =        4

     celldm(1)=  18.764036  celldm(2)=   0.000000  celldm(3)=   0.000000
     celldm(4)=   0.000000  celldm(5)=   0.000000  celldm(6)=   0.000000

     crystal axes: (cart. coord. in units of alat)
               a(1) = (   1.000000   0.000000   0.000000 )
               a(2) = (   0.333330   0.942807   0.000000 )
               a(3) = (   0.000000   0.000000   2.626577 )

     reciprocal axes: (cart. coord. in units 2 pi/alat)
               b(1) = (  1.000000 -0.353551  0.000000 )
               b(2) = (  0.000000  1.060663  0.000000 )
               b(3) = (  0.000000  0.000000  0.380724 )

     PseudoPot. # 1 for Fe read from file:
     ../../SSSP/Fe.pbe-spn-kjpaw_psl.0.2.1.UPF
     MD5 check sum: e86618425769142926afa95317d90200
     Pseudo is Projector augmented-wave + core cor, Zval = 16.0
     Generated using "atomic" code by A. Dal Corso  v.5.0.99 svn rev. 10869
     Shape of augmentation charge: PSQ
     Using radial grid of 1191 points,  6 beta functions with:
                l(1) =   0
                l(2) =   0
                l(3) =   1
                l(4) =   1
                l(5) =   2
                l(6) =   2
     Q(r) pseudized with 0 coefficients

     PseudoPot. # 2 for N  read from file:
     ../../SSSP/N.pbe-n-radius_5.UPF
     MD5 check sum: 16739722b17309cd8fe442a2ace49922
     Pseudo is Ultrasoft + core correction, Zval =  5.0
     Generated using "atomic" code by A. Dal Corso  v.5.1
     Using radial grid of 1085 points,  4 beta functions with:
                l(1) =   0
                l(2) =   0
                l(3) =   1
                l(4) =   1
     Q(r) pseudized with 0 coefficients

     PseudoPot. # 3 for H  read from file:
     ../../SSSP/H.pbe-rrkjus_psl.1.0.0.UPF
     MD5 check sum: f52b6d4d1c606e5624b1dc7b2218f220
     Pseudo is Ultrasoft, Zval =  1.0
     Generated using "atomic" code by A. Dal Corso  v.5.1
     Using radial grid of  929 points,  2 beta functions with:
                l(1) =   0
                l(2) =   0
     Q(r) pseudized with 0 coefficients

     atomic species   valence    mass     pseudopotential
        Fe            16.00    55.84500     Fe( 1.00)
        N              5.00    14.00700     N ( 1.00)
        H              1.00     1.00800     H ( 1.00)

     Starting magnetic structure
     atomic species   magnetization
        Fe           0.100
        N            0.100
        H            0.100

     No symmetry found

   Cartesian axes

     site n.     atom                  positions (alat units)
         1           Fe  tau(   1) = (   0.1666663   0.1178509   0.0000000  )
         2           Fe  tau(   2) = (   0.0000000   0.0000000   0.2041376  )
         3           Fe  tau(   3) = (   0.4999989   0.3535526   0.0000000  )
         4           Fe  tau(   4) = (   0.3333326   0.2357017   0.2041376  )
         5           Fe  tau(   5) = (   0.1659520   0.1175810   0.4053421  )
         6           Fe  tau(   6) = (   0.3326483   0.9437822   0.6045480  )
         7           Fe  tau(   7) = (   0.4994773   0.3539991   0.4040113  )
         8           Fe  tau(   8) = (   0.3326212   0.2349085   0.6046659  )
         9           Fe  tau(   9) = (   0.2499989   0.3535526   0.0000000  )
        10           Fe  tau(  10) = (   0.4166663   0.1178509   0.0000000  )
        11           Fe  tau(  11) = (   0.0833326   0.2357017   0.2041376  )
        12           Fe  tau(  12) = (   0.2500000   0.0000000   0.2041376  )
        13           Fe  tau(  13) = (   0.2500038   0.3535555   0.4055726  )
        14           Fe  tau(  14) = (   0.4158438   0.1172672   0.4046832  )
        15           Fe  tau(  15) = (   0.0821558   0.2362200   0.6034882  )
        16           Fe  tau(  16) = (   0.2495789  -0.0002859   0.6056089  )
        17           Fe  tau(  17) = (   0.6666663   0.1178509   0.0000000  )
        18           Fe  tau(  18) = (   0.5000000   0.0000000   0.2041376  )
        19           Fe  tau(  19) = (   0.9999989   0.3535526   0.0000000  )
        20           Fe  tau(  20) = (   0.8333326   0.2357017   0.2041376  )
        21           Fe  tau(  21) = (   0.6669167   0.1172041   0.4040203  )
        22           Fe  tau(  22) = (   0.4990102  -0.0004232   0.6046479  )
        23           Fe  tau(  23) = (   1.0005395   0.3531053   0.4040173  )
        24           Fe  tau(  24) = (   0.8339271   0.2349135   0.6127668  )
        25           Fe  tau(  25) = (   0.7499989   0.3535526   0.0000000  )
        26           Fe  tau(  26) = (   0.9166663   0.1178509   0.0000000  )
        27           Fe  tau(  27) = (   0.5833326   0.2357017   0.2041376  )
        28           Fe  tau(  28) = (   0.7500000   0.0000000   0.2041376  )
        29           Fe  tau(  29) = (   0.7500145   0.3535431   0.4073932  )
        30           Fe  tau(  30) = (   0.9156153   0.1193455   0.4076658  )
        31           Fe  tau(  31) = (   0.5780307   0.2319510   0.5972529  )
        32           Fe  tau(  32) = (   1.0832464   0.9441187   0.6034971  )
        33           Fe  tau(  33) = (   0.3333315   0.5892543   0.0000000  )
        34           Fe  tau(  34) = (   0.1666652   0.4714034   0.2041376  )
        35           Fe  tau(  35) = (   0.6666640   0.8249560   0.0000000  )
        36           Fe  tau(  36) = (   0.4999978   0.7071052   0.2041376  )
        37           Fe  tau(  37) = (   0.3340349   0.5895474   0.4053449  )
        38           Fe  tau(  38) = (   1.1674066   0.4722071   0.6046468  )
        39           Fe  tau(  39) = (   0.6661593   0.8243969   0.4053404  )
        40           Fe  tau(  40) = (   0.5006542   0.7061856   0.6045406  )
        41           Fe  tau(  41) = (   0.4166640   0.8249560   0.0000000  )
        42           Fe  tau(  42) = (   0.5833315   0.5892543   0.0000000  )
        43           Fe  tau(  43) = (   0.2499978   0.7071052   0.2041376  )
        44           Fe  tau(  44) = (   0.4166652   0.4714034   0.2041376  )
        45           Fe  tau(  45) = (   0.4166468   0.8249857   0.4059703  )
        46           Fe  tau(  46) = (   0.5843729   0.5877891   0.4076607  )
        47           Fe  tau(  47) = (   1.2504146   0.7074198   0.6056091  )
        48           Fe  tau(  48) = (   0.4178713   0.4709022   0.6035054  )
        49           Fe  tau(  49) = (   0.8333315   0.5892543   0.0000000  )
        50           Fe  tau(  50) = (   0.6666652   0.4714034   0.2041376  )
        51           Fe  tau(  51) = (   1.1666640   0.8249560   0.0000000  )
        52           Fe  tau(  52) = (   0.9999978   0.7071052   0.2041376  )
        53           Fe  tau(  53) = (   0.8330954   0.5899023   0.4040064  )
        54           Fe  tau(  54) = (   0.6661509   0.4721609   0.6127345  )
        55           Fe  tau(  55) = (   1.1671606   0.8255483   0.4053449  )
        56           Fe  tau(  56) = (   1.0009941   0.7075301   0.6046618  )
        57           Fe  tau(  57) = (   0.9166640   0.8249560   0.0000000  )
        58           Fe  tau(  58) = (   1.0833315   0.5892543   0.0000000  )
        59           Fe  tau(  59) = (   0.7499978   0.7071052   0.2041376  )
        60           Fe  tau(  60) = (   0.9166652   0.4714034   0.2041376  )
        61           Fe  tau(  61) = (   0.9166668   0.8249631   0.4055693  )
        62           Fe  tau(  62) = (   1.0841657   0.5898408   0.4046826  )
        63           Fe  tau(  63) = (   0.7500805   0.7058177   0.6034959  )
        64           Fe  tau(  64) = (   0.9219865   0.4751687   0.5972441  )
        65           N   tau(  65) = (   0.7501233   0.3536228   0.7530313  )
        66           H   tau(  66) = (   0.8171004   0.4010472   0.8162431  )
        67           H   tau(  67) = (   0.6831528   0.3062511   0.8162907  )

     number of k points=    10  Methfessel-Paxton smearing, width (Ry)=  0.0100
                       cart. coord. in units 2pi/alat
        k(    1) = (   0.0000000   0.0000000   0.0000000), wk =   0.0625000
        k(    2) = (   0.0000000   0.2651656   0.0000000), wk =   0.1250000
        k(    3) = (   0.0000000  -0.5303313   0.0000000), wk =   0.0625000
        k(    4) = (   0.2500000  -0.0883878   0.0000000), wk =   0.1250000
        k(    5) = (   0.2500000   0.1767779   0.0000000), wk =   0.1250000
        k(    6) = (   0.2500000  -0.6187190   0.0000000), wk =   0.1250000
        k(    7) = (   0.2500000  -0.3535534   0.0000000), wk =   0.1250000
        k(    8) = (  -0.5000000   0.1767755   0.0000000), wk =   0.0625000
        k(    9) = (  -0.5000000   0.4419412   0.0000000), wk =   0.1250000
        k(   10) = (  -0.5000000  -0.3535558   0.0000000), wk =   0.0625000

     Check: negative core charge=   -0.000039
     Generating pointlists ...
     new r_m :   0.0833 (alat units)  1.5632 (a.u.) for type    1
     new r_m :   0.0427 (alat units)  0.8018 (a.u.) for type    2
     new r_m :   0.0427 (alat units)  0.8018 (a.u.) for type    3

     Initial potential from superposition of free atoms

     starting charge 1030.97192, renormalised to 1031.00000

     negative rho (up, down):  1.340E-02 1.096E-02
     Starting wfcs are  838 randomized atomic wfcs
[...]
   -85.6637 -85.6543 -85.6509 -85.6496 -85.6483 -85.6479 -85.6466 -85.6438
   -52.3730 -52.3570 -52.1673 -52.1599 -52.0825 -52.0774 -52.0693 -52.0640
   -52.0627 -52.0527 -52.0498 -52.0476 -52.0466 -52.0439 -52.0410 -52.0369
   -52.0368 -52.0360 -52.0326 -52.0324 -52.0273 -52.0249 -52.0238 -52.0212
   -52.0182 -52.0164 -52.0156 -52.0126 -52.0043 -52.0038 -51.9943 -51.9908
   -51.9905 -51.9886 -51.9873 -51.9836 -51.9803 -51.9755 -51.9673 -51.9646
   -51.9640 -51.9639 -51.9620 -51.9559 -51.9558 -51.9517 -51.9515 -51.9509
   -51.9497 -51.9489 -51.9471 -51.9464 -51.9446 -51.9430 -51.9417 -51.9399
   -51.9377 -51.9375 -51.9338 -51.9333 -51.9319 -51.9319 -51.9291 -51.9284
   -51.9159 -51.9022 -51.9006 -51.8989 -51.8986 -51.8929 -51.8928 -51.8793
   -51.8777 -51.8765 -51.8718 -51.8714 -51.8656 -51.8655 -51.8629 -51.8533
   -51.8525 -51.8492 -51.8449 -51.8419 -51.8409 -51.8402 -51.8369 -51.8368
   -51.8366 -51.8333 -51.8285 -51.8273 -51.8257 -51.8255 -51.8202 -51.8174
   -51.8157 -51.8136 -51.8111 -51.8066 -51.8024 -51.7991 -51.7986 -51.7977
   -51.7960 -51.7951 -51.7937 -51.7923 -51.7910 -51.7891 -51.7864 -51.7827
   -51.7802 -51.7797 -51.7777 -51.7762 -51.7755 -51.7692 -51.7689 -51.7685
   -51.7664 -51.7657 -51.7629 -51.7594 -51.7588 -51.7546 -51.7529 -51.7503
   -51.7499 -51.7496 -51.7480 -51.7427 -51.7394 -51.7360 -51.7345 -51.7327
   -51.7311 -51.7295 -51.7290 -51.7280 -51.7267 -51.7256 -51.7252 -51.7231
   -51.7228 -51.7208 -51.7203 -51.7194 -51.7177 -51.7153 -51.7152 -51.7119
   -51.7113 -51.7097 -51.7089 -51.7068 -51.7067 -51.7053 -51.7038 -51.7033
   -51.7032 -51.7017 -51.7013 -51.7009 -51.7009 -51.6997 -51.6988 -51.6986
   -51.6981 -51.6966 -51.6927 -51.6910 -51.6900 -51.6895 -51.6892 -51.6871
   -51.6865 -51.6855 -51.6854 -51.6849 -51.6794 -51.6768 -51.6762 -51.6760
   -51.6758 -51.6734 -51.6727 -51.6715 -51.6709 -51.6687 -51.6679 -51.6675
   -18.0889  -9.2300  -7.8660  -7.7457  -7.4343  -7.1698  -7.0718  -6.4494
    -6.3107  -5.9595  -5.8117  -5.2471  -5.1615  -5.1549  -5.1411  -4.8920
    -4.7486  -4.6613  -4.3136  -4.3106  -4.3076  -4.2988  -4.2862  -4.2765
    -4.1895  -4.1822  -4.1788  -4.1742  -4.1112  -4.0968  -3.7603  -3.7598
    -3.7475  -3.7443  -3.7191  -3.7004  -3.5376  -3.5191  -3.2874  -3.2812
    -3.2542  -3.2352  -3.2298  -3.2140  -3.1858  -3.1779  -3.1563  -3.1368
    -3.1272  -3.1060  -2.9889  -2.9871  -2.9736  -2.9717  -2.9650  -2.9151
    -2.7243  -2.7054  -2.7025  -2.6972  -2.6902  -2.6782  -2.4814  -2.4486
    -2.4330  -2.4229  -2.3781  -2.3718  -2.2834  -2.2652  -2.2057  -2.1925
    -2.1898  -2.1796  -2.1724  -2.1694  -2.1620  -2.1602  -2.1568  -2.1565
    -2.0851  -2.0747  -2.0691  -2.0623  -2.0609  -2.0563  -2.0536  -2.0465
    -2.0434  -2.0368  -2.0364  -1.9702  -1.8479  -1.8367  -1.8196  -1.8157
    -1.7176  -1.7048  -1.7047  -1.6992  -1.6818  -1.6758  -1.6609  -1.6502
    -1.6500  -1.6372  -1.6218  -1.6202  -1.6192  -1.6137  -1.6101  -1.6008
    -1.5928  -1.5919  -1.5792  -1.5684  -1.5627  -1.5609  -1.5561  -1.5536
    -1.5515  -1.5482  -1.5472  -1.5350  -1.5175  -1.5054  -1.5033  -1.4791
    -1.4698  -1.4642  -1.4542  -1.4517  -1.4510  -1.4474  -1.4431  -1.4407
    -1.4372  -1.4269  -1.4210  -1.3847  -1.3743  -1.3610  -1.2490  -1.2414
    -1.1896  -1.1891  -1.1889  -1.1861  -1.1726  -1.1533  -1.1443  -1.1197
    -1.1100  -1.0978  -1.0795  -1.0292  -1.0066  -0.9934  -0.9743  -0.9596
    -0.9531  -0.9528  -0.9472  -0.9264  -0.9249  -0.9191  -0.8994  -0.8454
    -0.7693  -0.7625  -0.7401  -0.7377  -0.7303  -0.7112  -0.6806  -0.6727
    -0.6591  -0.6516  -0.6459  -0.6348  -0.5905  -0.5535  -0.5402  -0.5399
    -0.5325  -0.5275  -0.5261  -0.5242  -0.5020  -0.2791  -0.2574  -0.1991
    -0.1729  -0.1474  -0.1339  -0.0948  -0.0287   0.0837   0.1188   0.1223
     0.1268   0.1410   0.1772   0.1912   0.2360   0.2719   0.2748   0.2788
     0.2924   0.3148   0.3261   0.3556   0.3680   0.3771   0.4093   0.4133
     0.4155   0.4482   0.4596   0.5018   0.5348   0.5443   0.5643   0.5806
[...]
     0.9146   0.9335   0.9615   0.9700   1.0170   1.0321   1.0538   1.0561
     1.0592   1.0644   1.0677   1.0775   1.0793   1.0809   1.0904   1.1009
     1.1063   1.1083   1.1175   1.1204   1.1236   1.1313   1.1408   1.1442
     1.1630   1.1804   1.1861   1.1899   1.1984   1.2034   1.2042   1.2050
     1.2188   1.2220   1.2251   1.2322   1.2408   1.2508   1.2637   1.2654
     1.2668   1.2851   1.2884   1.2922   1.2932   1.3025   1.3029   1.3059
     1.3084   1.3106   1.3115   1.3200   1.3469   1.3503   1.4077   1.4195
     1.4316   1.4325   1.4398   1.4437   1.4600   1.4722   1.4822   1.4850
     1.4877   1.4943   1.4976   1.4981   1.5007   1.5009   1.5040   1.5075
     1.5090   1.5103   1.5128   1.5155   1.5276   1.5310   1.5371   1.5590
     1.5667   1.5745   1.5750   1.5816   1.5914   1.5934   1.5964   1.6024
     1.6086   1.6109   1.6400   1.6832   1.6840   1.6856   1.6937   1.6958
     1.7070   1.7289   1.8939   1.9144   2.0012   2.0318   2.0987   2.1041
     2.1127   2.1177   2.1236   2.1411   2.1712   2.1719   2.1959   2.1967
     2.2110   2.2113   2.2487

     the Fermi energy is    -0.6353 ev

!    total energy              =  -21094.94842282 Ry
     estimated scf accuracy    <          8.2E-11 Ry
     smearing contrib. (-TS)   =       0.00077559 Ry
     internal energy E=F+TS    =  -21094.94919842 Ry

     The total energy is F=E-TS. E is the sum of the following terms:
     one-electron contribution = -743629.55707479 Ry
     hartree contribution      =  371786.28023096 Ry
     xc contribution           =   -2235.08572010 Ry
     ewald contribution        =  357858.24105079 Ry
     Dispersion Correction     =      -1.39428884 Ry
     one-center paw contrib.   =   -4873.43339643 Ry

     total magnetization       =   162.03 Bohr mag/cell
     absolute magnetization    =   168.70 Bohr mag/cell

     convergence has been achieved in  14 iterations

     negative rho (up, down):  1.127E-02 1.560E-02

     Forces acting on atoms (cartesian axes, Ry/au):

     atom    1 type  1   force =     0.00018737    0.00006400    0.00948040
     atom    2 type  1   force =    -0.00082620    0.00117866   -0.00482042
     atom    3 type  1   force =     0.00027909    0.00005594    0.00924123
     atom    4 type  1   force =    -0.00057668   -0.00000172   -0.01034073
     atom    5 type  1   force =    -0.00002370   -0.00000428   -0.00002369
     atom    6 type  1   force =     0.00000355   -0.00000558    0.00000438
     atom    7 type  1   force =    -0.00000127   -0.00002580   -0.00006635
     atom    8 type  1   force =     0.00002703    0.00000460    0.00000682
     atom    9 type  1   force =     0.00000541    0.00000889    0.00946140
     atom   10 type  1   force =    -0.00009630   -0.00008009    0.00876838
     atom   11 type  1   force =     0.00018293   -0.00035833   -0.01032571
     atom   12 type  1   force =    -0.00039088   -0.00019303   -0.00947033
     atom   13 type  1   force =    -0.00000215   -0.00000022   -0.00002513
     atom   14 type  1   force =     0.00001311    0.00000675   -0.00005154
     atom   15 type  1   force =    -0.00001120   -0.00000914    0.00004125
     atom   16 type  1   force =    -0.00002790   -0.00002391    0.00002681
     atom   17 type  1   force =     0.00015543    0.00021532    0.00921267
     atom   18 type  1   force =    -0.00016520   -0.00053198   -0.01037982
     atom   19 type  1   force =    -0.00025741   -0.00007463    0.00920427
     atom   20 type  1   force =     0.00003425   -0.00003760   -0.00697932
     atom   21 type  1   force =    -0.00002392    0.00000937   -0.00006880
     atom   22 type  1   force =     0.00000967    0.00002016    0.00001322
     atom   23 type  1   force =    -0.00000094    0.00002434   -0.00006794
     atom   24 type  1   force =    -0.00008051    0.00010908    0.00012751
     atom   25 type  1   force =     0.00000617   -0.00000729    0.00858444
     atom   26 type  1   force =     0.00006168   -0.00008994    0.00904850
     atom   27 type  1   force =     0.00010705   -0.00003308   -0.01080586
     atom   28 type  1   force =     0.00028451   -0.00028099   -0.01032209
     atom   29 type  1   force =     0.00000050   -0.00000115   -0.00014323
     atom   30 type  1   force =     0.00000222   -0.00000296   -0.00011959
     atom   31 type  1   force =     0.00007160    0.00004418    0.00006420
     atom   32 type  1   force =     0.00001091    0.00000708    0.00004028
     atom   33 type  1   force =    -0.00019135   -0.00006263    0.00953820
     atom   34 type  1   force =     0.00055665   -0.00001410   -0.01037523
     atom   35 type  1   force =     0.00012464    0.00015696    0.00954595
     atom   36 type  1   force =     0.00074040   -0.00105339   -0.00483289
     atom   37 type  1   force =     0.00002516    0.00000322   -0.00001912
     atom   38 type  1   force =    -0.00002184   -0.00000254    0.00001410
     atom   39 type  1   force =    -0.00001167   -0.00002368   -0.00001915
     atom   40 type  1   force =    -0.00000166    0.00000187   -0.00000478
     atom   41 type  1   force =    -0.00001130    0.00001868    0.00698699
     atom   42 type  1   force =    -0.00006132    0.00008064    0.00910231
     atom   43 type  1   force =     0.00030714    0.00031686   -0.00946028
     atom   44 type  1   force =    -0.00024033    0.00036220   -0.01031275
     atom   45 type  1   force =     0.00000094   -0.00000224   -0.00007830
     atom   46 type  1   force =     0.00000010   -0.00000068   -0.00012274
     atom   47 type  1   force =     0.00003015    0.00002093    0.00002659
     atom   48 type  1   force =     0.00001328    0.00000878    0.00004278
     atom   49 type  1   force =    -0.00014478   -0.00024523    0.00925136
     atom   50 type  1   force =     0.00002604   -0.00004270   -0.00696624
     atom   51 type  1   force =    -0.00012283   -0.00015584    0.00948505
     atom   52 type  1   force =     0.00019018    0.00055830   -0.01034115
     atom   53 type  1   force =     0.00002416   -0.00000806   -0.00006482
     atom   54 type  1   force =     0.00008335   -0.00011982    0.00012267
     atom   55 type  1   force =     0.00001126    0.00002096   -0.00002485
     atom   56 type  1   force =    -0.00001294   -0.00002558    0.00000812
     atom   57 type  1   force =    -0.00001064   -0.00000212    0.00947558
     atom   58 type  1   force =     0.00010979    0.00006349    0.00876486
     atom   59 type  1   force =    -0.00026431    0.00034915   -0.01032136
     atom   60 type  1   force =    -0.00000859   -0.00010070   -0.01081215
     atom   61 type  1   force =     0.00000004    0.00000087   -0.00002540
     atom   62 type  1   force =    -0.00001046   -0.00001011   -0.00005163
     atom   63 type  1   force =    -0.00001125   -0.00000970    0.00004585
     atom   64 type  1   force =    -0.00006384   -0.00005362    0.00006677
     atom   65 type  2   force =     0.00008863    0.00005871    0.00004438
     atom   66 type  3   force =     0.00001422    0.00000331    0.00010387
     atom   67 type  3   force =    -0.00011526   -0.00007887    0.00018876

     Total force =     0.000526     Total SCF correction =     0.000055
     SCF correction compared to forces is large: reduce conv_thr to get better values
     Energy error            =      4.2E-07
     Gradient error          =      1.9E-04

     bfgs converged in  12 scf cycles and  11 bfgs steps
     (criteria: energy <  7.3E-07 Ry, force <  3.9E-04 Ry/Bohr)

     End of BFGS Geometry Optimization

     Final energy   =  -21094.9484228227 Ry

     File ./Fe_NH2_paper_480c_ESM_p5.bfgs deleted, as requested
Begin final coordinates

ATOMIC_POSITIONS (angstrom)
Fe            1.6549129530        1.1702001330        0.0000000000    0   0   0
Fe            0.0000000000        0.0000000000        2.0269842320    0   0   0
Fe            4.9647388580        3.5106003990        0.0000000000    0   0   0
Fe            3.3098259060        2.3404002660        2.0269842320    0   0   0
Fe            1.6478728222        1.1672235871        4.0292420751
Fe            3.3026928067        9.3717760079        6.0118384063
Fe            4.9591402343        3.5150813551        4.0148136681
Fe            3.3018667473        2.3324929350        6.0139551305
Fe            2.4823638580        3.5106003990        0.0000000000    0   0   0
Fe            4.1372879530        1.1702001330        0.0000000000    0   0   0
Fe            0.8274509060        2.3404002660        2.0269842320    0   0   0
Fe            2.4823750000        0.0000000000        2.0269842320    0   0   0
Fe            2.4824511250        3.5107069173        4.0313369298
Fe            4.1288247282        1.1642084617        4.0224818891
Fe            0.8163591712        2.3464296881        6.0008063268
Fe            2.4778510661       -0.0028899735        6.0226202023
Fe            6.6196629530        1.1702001330        0.0000000000    0   0   0
Fe            4.9647500000        0.0000000000        2.0269842320    0   0   0
Fe            9.9294888580        3.5106003990        0.0000000000    0   0   0
Fe            8.2745759060        2.3404002660        2.0269842320    0   0   0
Fe            6.6219833634        1.1633292271        4.0149309017
Fe            4.9544137630       -0.0051481602        6.0138317427
Fe            9.9353102257        3.5061677587        4.0149023374
Fe            8.2820316598        2.3302728780        6.0869760344
Fe            7.4471138580        3.5106003990        0.0000000000    0   0   0
Fe            9.1020379530        1.1702001330        0.0000000000    0   0   0
Fe            5.7922009060        2.3404002660        2.0269842320    0   0   0
Fe            7.4471250000        0.0000000000        2.0269842320    0   0   0
Fe            7.4472751066        3.5104831350        4.0474429970
Fe            9.0921102485        1.1842963448        4.0507357794
Fe            5.7372431003        2.3015023459        5.9375020260
Fe           10.7550974673        9.3743007245        6.0009005776
Fe            3.3098147640        5.8510006640        0.0000000000    0   0   0
Fe            1.6549018110        4.6808005310        2.0269842320    0   0   0
Fe            6.6196406700        8.1914009300        0.0000000000    0   0   0
Fe            4.9647277170        7.0212007970        2.0269842320    0   0   0
Fe            3.3167486621        5.8542798415        4.0292662251
Fe           11.5928363316        4.6889346722        6.0138212135
Fe            6.6142945487        8.1860429113        4.0292181630
Fe            4.9714718310        7.0117384089        6.0120113293
Fe            4.1372656700        8.1914009300        0.0000000000    0   0   0
Fe            5.7921897640        5.8510006640        0.0000000000    0   0   0
Fe            2.4823527170        7.0212007970        2.0269842320    0   0   0
Fe            4.1372768110        4.6808005310        2.0269842320    0   0   0
Fe            4.1370999097        8.1916900535        4.0352086059
Fe            5.8019730929        5.8372534709        4.0507478634
Fe           12.4161745237        7.0245993880        6.0226333464
Fe            4.1489011129        4.6750697031        6.0009496688
Fe            8.2745647640        5.8510006640        0.0000000000    0   0   0
Fe            6.6196518110        4.6808005310        2.0269842320    0   0   0
Fe           11.5843906700        8.1914009300        0.0000000000    0   0   0
Fe            9.9294777170        7.0212007970        2.0269842320    0   0   0
Fe            8.2723204410        5.8578475931        4.0147659721
Fe            6.6130804430        4.6903969609        6.0866138477
Fe           11.5896030059        8.1971038761        4.0292699753
Fe            9.9396800739        7.0262298110        6.0139411340
Fe            9.1020156700        8.1914009300        0.0000000000    0   0   0
Fe           10.7569397640        5.8510006640        0.0000000000    0   0   0
Fe            7.4471027170        7.0212007970        2.0269842320    0   0   0
Fe            9.1020268110        4.6808005310        2.0269842320    0   0   0
Fe            9.1019644350        8.1914535304        4.0313115281
Fe           10.7655151787        5.8570304702        4.0224888535
Fe            7.4487111989        7.0085174927        6.0008442363
Fe            9.1571831839        4.7198103602        5.9374324105
N             7.4482040820        3.5111022926        7.4806471003
H             8.1157375927        3.9836321964        8.1040260214
H             6.7807549122        3.0392371210        8.1044328382
End final coordinates

     Writing output data file ./Fe_NH2_paper_480c_ESM_p5.save/

     General routines

     Parallel routines

   This run was terminated on:   3:32:35  17Jun2022

   JOB DONE.