     Program PWSCF v.6.4.1 starts on  8Jun2022 at 23:42:10

     K-points division:     npool     =       8
     R & G space division:  proc/nbgrp/npool/nimage =      20
     Waiting for input...
     Reading input from standard input
Warning: card &CELL ignored
Warning: card / ignored

     Current dimensions of program PWSCF are:
     Max number of different atomic species (ntypx) = 10
     Max number of k-points (npk) =  40000
     Max angular momentum in pseudopotentials (lmaxx) =  3

     IMPORTANT: XC functional enforced from input :
     Exchange-correlation      = PBE ( 1  4  3  4 0 0)
     Any further DFT definition will be discarded
     Please, verify this is what you really want

               file Fe.pbe-spn-kjpaw_psl.0.2.1.UPF: wavefunction(s)  3D renormalized

     Parameters for Dispersion (Grimme-D2) Correction:
       atom      VdW radius       C_6

        Fe         2.952        374.666
        N          2.640         42.670
        H          1.892          4.857

     bravais-lattice index     =            0
     lattice parameter (alat)  =      18.7640  a.u.
     unit-cell volume          =   16360.3163 (a.u.)^3
     number of atoms/cell      =           68
     number of atomic types    =            3
     number of electrons       =      1032.00
     number of Kohn-Sham states=          619
     kinetic-energy cutoff     =      60.0000  Ry
     charge density cutoff     =     480.0000  Ry
     convergence threshold     =      1.0E-08
     mixing beta               =       0.2000
     number of iterations used =           10  local-TF  mixing
     Exchange-correlation      = PBE ( 1  4  3  4 0 0)
     nstep                     =           50

     Effective Screening Medium Method
     Boundary Conditions: Metal-Slab-Metal
     field strength                   =     0.01 Ry/a.u.
     grid points for fit at edges     =        4

     celldm(1)=  18.764036  celldm(2)=   0.000000  celldm(3)=   0.000000
     celldm(4)=   0.000000  celldm(5)=   0.000000  celldm(6)=   0.000000

     crystal axes: (cart. coord. in units of alat)
               a(1) = (   1.000000   0.000000   0.000000 )
               a(2) = (   0.333330   0.942807   0.000000 )
               a(3) = (   0.000000   0.000000   2.626577 )

     reciprocal axes: (cart. coord. in units 2 pi/alat)
               b(1) = (  1.000000 -0.353551  0.000000 )
               b(2) = (  0.000000  1.060663  0.000000 )
               b(3) = (  0.000000  0.000000  0.380724 )

     PseudoPot. # 1 for Fe read from file:
     ../../SSSP/Fe.pbe-spn-kjpaw_psl.0.2.1.UPF
     MD5 check sum: e86618425769142926afa95317d90200
     Pseudo is Projector augmented-wave + core cor, Zval = 16.0
     Generated using "atomic" code by A. Dal Corso v.5.0.99 svn rev. 10869
     Shape of augmentation charge: PSQ
     Using radial grid of 1191 points,  6 beta functions with:
                l(1) =   0
                l(2) =   0
                l(3) =   1
                l(4) =   1
                l(5) =   2
                l(6) =   2
     Q(r) pseudized with 0 coefficients

     PseudoPot. # 2 for N  read from file:
     ../../SSSP/N.pbe-n-radius_5.UPF
     MD5 check sum: 16739722b17309cd8fe442a2ace49922
     Pseudo is Ultrasoft + core correction, Zval =  5.0
     Generated using "atomic" code by A. Dal Corso v.5.1
     Using radial grid of 1085 points,  4 beta functions with:
                l(1) =   0
                l(2) =   0
                l(3) =   1
                l(4) =   1
     Q(r) pseudized with 0 coefficients

     PseudoPot. # 3 for H  read from file:
     ../../SSSP/H.pbe-rrkjus_psl.1.0.0.UPF
     MD5 check sum: f52b6d4d1c606e5624b1dc7b2218f220
     Pseudo is Ultrasoft, Zval =  1.0
     Generated using "atomic" code by A. Dal Corso v.5.1
     Using radial grid of  929 points,  2 beta functions with:
                l(1) =   0
                l(2) =   0
     Q(r) pseudized with 0 coefficients

     atomic species   valence    mass     pseudopotential
        Fe            16.00    55.84500     Fe( 1.00)
        N              5.00    14.00700     N ( 1.00)
        H              1.00     1.00800     H ( 1.00)

     Starting magnetic structure
     atomic species   magnetization
        Fe           0.100
        N            0.100
        H            0.100

     No symmetry found

   Cartesian axes

     site n.     atom                  positions (alat units)
         1           Fe  tau(   1) = (   0.1666663   0.1178509   0.0000000  )
         2           Fe  tau(   2) = (   0.0000000   0.0000000   0.2041376  )
         3           Fe  tau(   3) = (   0.4999989   0.3535526   0.0000000  )
         4           Fe  tau(   4) = (   0.3333326   0.2357017   0.2041376  )
         5           Fe  tau(   5) = (   0.1662338   0.1176619   0.4050998  )
         6           Fe  tau(   6) = (   0.3331264   0.9440494   0.6055998  )
         7           Fe  tau(   7) = (   0.4997176   0.3541907   0.4040971  )
         8           Fe  tau(   8) = (   0.3331932   0.2347853   0.6042847  )
         9           Fe  tau(   9) = (   0.2499989   0.3535526   0.0000000  )
        10           Fe  tau(  10) = (   0.4166663   0.1178509   0.0000000  )
        11           Fe  tau(  11) = (   0.0833326   0.2357017   0.2041376  )
        12           Fe  tau(  12) = (   0.2500000   0.0000000   0.2041376  )
        13           Fe  tau(  13) = (   0.2500298   0.3534599   0.4056094  )
        14           Fe  tau(  14) = (   0.4160610   0.1174334   0.4047411  )
        15           Fe  tau(  15) = (   0.0824598   0.2362012   0.6033153  )
        16           Fe  tau(  16) = (   0.2499546  -0.0000122   0.6047152  )
        17           Fe  tau(  17) = (   0.6666663   0.1178509   0.0000000  )
        18           Fe  tau(  18) = (   0.5000000   0.0000000   0.2041376  )
        19           Fe  tau(  19) = (   0.9999989   0.3535526   0.0000000  )
        20           Fe  tau(  20) = (   0.8333326   0.2357017   0.2041376  )
        21           Fe  tau(  21) = (   0.6671698   0.1173708   0.4040990  )
        22           Fe  tau(  22) = (   0.4990826   0.0001783   0.6042334  )
        23           Fe  tau(  23) = (   1.0002535   0.3528286   0.4039350  )
        24           Fe  tau(  24) = (   0.8343058   0.2343203   0.6131606  )
        25           Fe  tau(  25) = (   0.7499989   0.3535526   0.0000000  )
        26           Fe  tau(  26) = (   0.9166663   0.1178509   0.0000000  )
        27           Fe  tau(  27) = (   0.5833326   0.2357017   0.2041376  )
        28           Fe  tau(  28) = (   0.7500000   0.0000000   0.2041376  )
        29           Fe  tau(  29) = (   0.7499777   0.3535178   0.4073649  )
        30           Fe  tau(  30) = (   0.9158921   0.1187480   0.4083186  )
        31           Fe  tau(  31) = (   0.5789168   0.2325855   0.5975038  )
        32           Fe  tau(  32) = (   1.0837573   0.9440761   0.6033463  )
        33           Fe  tau(  33) = (   0.3333315   0.5892543   0.0000000  )
        34           Fe  tau(  34) = (   0.1666652   0.4714034   0.2041376  )
        35           Fe  tau(  35) = (   0.6666640   0.8249560   0.0000000  )
        36           Fe  tau(  36) = (   0.4999978   0.7071052   0.2041376  )
        37           Fe  tau(  37) = (   0.3338519   0.5895177   0.4055248  )
        38           Fe  tau(  38) = (   1.1669243   0.4714708   0.6037214  )
        39           Fe  tau(  39) = (   0.6663270   0.8246388   0.4051057  )
        40           Fe  tau(  40) = (   0.5010608   0.7065394   0.6055939  )
        41           Fe  tau(  41) = (   0.4166640   0.8249560   0.0000000  )
        42           Fe  tau(  42) = (   0.5833315   0.5892543   0.0000000  )
        43           Fe  tau(  43) = (   0.2499978   0.7071052   0.2041376  )
        44           Fe  tau(  44) = (   0.4166652   0.4714034   0.2041376  )
        45           Fe  tau(  45) = (   0.4165048   0.8248803   0.4053621  )
        46           Fe  tau(  46) = (   0.5839100   0.5882505   0.4083180  )
        47           Fe  tau(  47) = (   1.2488733   0.7063050   0.6056667  )
        48           Fe  tau(  48) = (   0.4179970   0.4713885   0.6033736  )
        49           Fe  tau(  49) = (   0.8333315   0.5892543   0.0000000  )
        50           Fe  tau(  50) = (   0.6666652   0.4714034   0.2041376  )
        51           Fe  tau(  51) = (   1.1666640   0.8249560   0.0000000  )
        52           Fe  tau(  52) = (   0.9999978   0.7071052   0.2041376  )
        53           Fe  tau(  53) = (   0.8327470   0.5897300   0.4039319  )
        54           Fe  tau(  54) = (   0.6657260   0.4727122   0.6131325  )
        55           Fe  tau(  55) = (   1.1670807   0.8253806   0.4055355  )
        56           Fe  tau(  56) = (   1.0001521   0.7073150   0.6037730  )
        57           Fe  tau(  57) = (   0.9166640   0.8249560   0.0000000  )
        58           Fe  tau(  58) = (   1.0833315   0.5892543   0.0000000  )
        59           Fe  tau(  59) = (   0.7499978   0.7071052   0.2041376  )
        60           Fe  tau(  60) = (   0.9166652   0.4714034   0.2041376  )
        61           Fe  tau(  61) = (   0.9165976   0.8250245   0.4056139  )
        62           Fe  tau(  62) = (   1.0839122   0.5896712   0.4045043  )
        63           Fe  tau(  63) = (   0.7501686   0.7061123   0.6033263  )
        64           Fe  tau(  64) = (   0.9212191   0.4746106   0.5974738  )
        65           N   tau(  65) = (   0.7500490   0.3535650   0.7527489  )
        66           H   tau(  66) = (   0.8167055   0.4008263   0.8165508  )
        67           H   tau(  67) = (   0.6834440   0.3063984   0.8166722  )
        68           H   tau(  68) = (   0.4576392   0.8539617   0.6989079  )

     number of k points=    10  Methfessel-Paxton smearing, width (Ry)=  0.0100
                       cart. coord. in units 2pi/alat
        k(    1) = (   0.0000000   0.0000000   0.0000000), wk =   0.0625000
        k(    2) = (   0.0000000   0.2651656   0.0000000), wk =   0.1250000
        k(    3) = (   0.0000000  -0.5303313   0.0000000), wk =   0.0625000
        k(    4) = (   0.2500000  -0.0883878   0.0000000), wk =   0.1250000
        k(    5) = (   0.2500000   0.1767779   0.0000000), wk =   0.1250000
        k(    6) = (   0.2500000  -0.6187190   0.0000000), wk =   0.1250000
        k(    7) = (   0.2500000  -0.3535534   0.0000000), wk =   0.1250000
        k(    8) = (  -0.5000000   0.1767755   0.0000000), wk =   0.0625000
        k(    9) = (  -0.5000000   0.4419412   0.0000000), wk =   0.1250000
        k(   10) = (  -0.5000000  -0.3535558   0.0000000), wk =   0.0625000

     Check: negative core charge=   -0.000039

     Initial potential from superposition of free atoms

     starting charge 1031.97191, renormalised to 1032.00000

     negative rho (up, down):  2.434E-02 2.563E-03
     Starting wfcs are  839 randomized atomic wfcs
     Checking if some PAW data can be deallocated...

     Self-consistent Calculation

     iteration #  1     ecut=    60.00 Ry     beta= 0.20
     Davidson diagonalization with overlap
     c_bands:  1 eigenvalues not converged
     ethr =  1.00E-04,  avg # of iterations = 17.8

[...]
     atom:   63    charge:   12.6247    magn:    2.3680    constr:    0.0000
     atom:   64    charge:   12.6365    magn:    2.3378    constr:    0.0000
     atom:   65    charge:    1.3522    magn:   -0.0011    constr:    0.0000
     atom:   66    charge:    0.4394    magn:    0.0076    constr:    0.0000
     atom:   67    charge:    0.4399    magn:    0.0076    constr:    0.0000
     atom:   68    charge:    0.3545    magn:   -0.0199    constr:    0.0000

     End of self-consistent calculation

 ------ SPIN UP ------------

[...]

 ------ SPIN DOWN ----------

[...]

          k = 0.2500-0.3536 0.0000 (128397 PWs)   bands (ev):

[...]

          k =-0.5000-0.3536 0.0000 (128560 PWs)   bands (ev):

   -87.9496 -87.9466 -87.7639 -87.7629 -87.7144 -87.7061 -87.7047 -87.6959
   -87.6825 -87.6820 -87.6729 -87.6724 -87.6654 -87.6631 -87.6586 -87.6581
   -87.6527 -87.6525 -87.6501 -87.6499 -87.6459 -87.6432 -87.6414 -87.6364
   -87.6354 -87.6342 -87.6341 -87.6317 -87.6317 -87.6276 -87.6263 -87.6221
   -87.6217 -87.6155 -87.6131 -87.6102 -87.6074 -87.5994 -87.5924 -87.5914
   -87.5897 -87.5889 -87.5884 -87.5878 -87.5845 -87.5804 -87.5786 -87.5718
   -87.5705 -87.5686 -87.5681 -87.5675 -87.5662 -87.5653 -87.5623 -87.5614
   -87.5579 -87.5559 -87.5534 -87.5476 -87.5462 -87.5442 -87.5430 -87.5389
   -54.2738 -54.2582 -54.0653 -54.0581 -54.0112 -53.9965 -53.9827 -53.9763
   -53.9691 -53.9647 -53.9555 -53.9513 -53.9498 -53.9487 -53.9480 -53.9462
   -53.9395 -53.9383 -53.9373 -53.9359 -53.9332 -53.9290 -53.9246 -53.9227
   -53.9226 -53.9185 -53.9183 -53.9175 -53.9130 -53.9074 -53.9044 -53.8995
   -53.8982 -53.8920 -53.8911 -53.8878 -53.8872 -53.8816 -53.8779 -53.8773
   -53.8756 -53.8685 -53.8649 -53.8647 -53.8628 -53.8627 -53.8614 -53.8578
   -53.8553 -53.8500 -53.8497 -53.8470 -53.8436 -53.8422 -53.8420 -53.8389
   -53.8372 -53.8360 -53.8357 -53.8338 -53.8327 -53.8309 -53.8298 -53.8276
   -53.8172 -53.8133 -53.8068 -53.8024 -53.8019 -53.7974 -53.7962 -53.7936
   -53.7890 -53.7829 -53.7827 -53.7752 -53.7717 -53.7680 -53.7679 -53.7595
   -53.7587 -53.7539 -53.7503 -53.7484 -53.7456 -53.7439 -53.7408 -53.7402
   -53.7387 -53.7379 -53.7335 -53.7333 -53.7308 -53.7295 -53.7272 -53.7189
   -53.7180 -53.7162 -53.7154 -53.7124 -53.7102 -53.7094 -53.7063 -53.7037
   -53.6977 -53.6943 -53.6942 -53.6920 -53.6914 -53.6910 -53.6903 -53.6854
   -53.6810 -53.6793 -53.6792 -53.6773 -53.6748 -53.6726 -53.6711 -53.6674
   -53.6674 -53.6670 -53.6663 -53.6644 -53.6631 -53.6626 -53.6571 -53.6560
   -53.6546 -53.6536 -53.6511 -53.6502 -53.6471 -53.6438 -53.6405 -53.6371
   -53.6343 -53.6318 -53.6317 -53.6298 -53.6295 -53.6278 -53.6272 -53.6257
   -53.6254 -53.6239 -53.6226 -53.6224 -53.6224 -53.6187 -53.6179 -53.6170
   -53.6143 -53.6118 -53.6099 -53.6085 -53.6079 -53.6057 -53.6051 -53.6031
   -53.6028 -53.6005 -53.5993 -53.5987 -53.5986 -53.5977 -53.5971 -53.5966
   -53.5961 -53.5946 -53.5936 -53.5932 -53.5927 -53.5899 -53.5872 -53.5853
   -53.5849 -53.5834 -53.5814 -53.5813 -53.5782 -53.5771 -53.5768 -53.5746
   -53.5724 -53.5724 -53.5722 -53.5707 -53.5691 -53.5656 -53.5642 -53.5637
   -19.9321 -11.0354  -9.8117  -9.6479  -9.3781  -9.0691  -9.0675  -8.6720
    -8.3426  -7.8747  -7.8559  -7.4766  -7.1423  -7.0611  -7.0552  -6.9999
    -6.7721  -6.6439  -6.3796  -6.2160  -6.2086  -6.2046  -6.1872  -6.1746
    -6.1423  -6.0909  -6.0839  -6.0761  -6.0749  -5.9960  -5.8374  -5.6612
    -5.6607  -5.6478  -5.6429  -5.6000  -5.5383  -5.4353  -5.3671  -5.1882
    -5.1724  -5.1544  -5.1398  -5.1340  -5.0861  -5.0840  -5.0567  -5.0492
    -5.0298  -5.0099  -4.9633  -4.8901  -4.8899  -4.8740  -4.8691  -4.8331
    -4.7885  -4.6262  -4.6092  -4.6041  -4.6023  -4.5943  -4.5513  -4.3819
    -4.3354  -4.3240  -4.2946  -4.2802  -4.2730  -4.1880  -4.1646  -4.1095
    -4.0966  -4.0941  -4.0778  -4.0755  -4.0732  -4.0640  -4.0605  -4.0597
    -4.0406  -3.9937  -3.9766  -3.9749  -3.9635  -3.9593  -3.9558  -3.9553
    -3.9496  -3.9373  -3.9369  -3.8744  -3.8452  -3.7565  -3.7361  -3.7225
    -3.7177  -3.6217  -3.6102  -3.6084  -3.5991  -3.5820  -3.5695  -3.5629
    -3.5546  -3.5529  -3.5386  -3.5338  -3.5317  -3.5221  -3.5200  -3.5159
    -3.5019  -3.4965  -3.4936  -3.4794  -3.4744  -3.4663  -3.4628  -3.4613
    -3.4594  -3.4514  -3.4479  -3.4364  -3.4361  -3.4109  -3.4075  -3.4030
    -3.3768  -3.3716  -3.3638  -3.3602  -3.3561  -3.3468  -3.3467  -3.3427
    -3.3381  -3.3355  -3.3300  -3.3245  -3.2917  -3.2723  -3.2485  -3.1612
    -3.1414  -3.0945  -3.0919  -3.0897  -3.0881  -3.0702  -3.0552  -3.0358
    -3.0247  -3.0155  -2.9940  -2.9735  -2.9220  -2.9103  -2.8970  -2.8750
    -2.8728  -2.8675  -2.8486  -2.8467  -2.8404  -2.8296  -2.7819  -2.7811
    -2.6829  -2.6594  -2.6435  -2.6427  -2.6377  -2.6077  -2.5999  -2.5816
    -2.5753  -2.5625  -2.5610  -2.5459  -2.4925  -2.4767  -2.4704  -2.4586
    -2.4458  -2.4456  -2.4360  -2.4269  -2.3972  -2.2249  -2.1602  -2.1579
    -2.1092  -2.0524  -2.0479  -1.9941  -1.9319  -1.8216  -1.8087  -1.7916
    -1.7763  -1.7724  -1.7277  -1.7157  -1.6827  -1.6537  -1.6422  -1.6214
    -1.6132  -1.6019  -1.5850  -1.5406  -1.5301  -1.5221  -1.5066  -1.4912
    -1.4848  -1.4557  -1.4352  -1.4109  -1.3865  -1.3561  -1.3503  -1.3182
[...]
    -0.9827  -0.9668  -0.9361  -0.9338  -0.8868  -0.8861  -0.8635  -0.8501
    -0.8484  -0.8429  -0.8421  -0.8365  -0.8283  -0.8231  -0.8174  -0.8115
    -0.7925  -0.7909  -0.7865  -0.7799  -0.7747  -0.7677  -0.7659  -0.7613
    -0.7491  -0.7245  -0.7199  -0.7100  -0.6989  -0.6972  -0.6950  -0.6903
    -0.6838  -0.6811  -0.6765  -0.6585  -0.6545  -0.6537  -0.6401  -0.6343
    -0.6293  -0.6241  -0.6138  -0.6045  -0.5977  -0.5958  -0.5932  -0.5927
    -0.5900  -0.5880  -0.5725  -0.5614  -0.5501  -0.5448  -0.4950  -0.4691
    -0.4668  -0.4659  -0.4578  -0.4463  -0.4394  -0.4388  -0.4209  -0.4141
    -0.4106  -0.4088  -0.4029  -0.4019  -0.4006  -0.3998  -0.3944  -0.3893
    -0.3891  -0.3845  -0.3684  -0.3634  -0.3589  -0.3480  -0.3398  -0.3383
    -0.3321  -0.3259  -0.3219  -0.3194  -0.3061  -0.3047  -0.2939  -0.2880
    -0.2863  -0.2661  -0.2158  -0.2129  -0.2112  -0.2069  -0.2059  -0.1912
    -0.0660  -0.0546  -0.0108   0.0194   0.1332   0.1901   0.2215   0.2235
     0.2407   0.2661   0.2762   0.2822   0.3123   0.3162   0.3216   0.3472
     0.3655   0.4429   0.5174

     the Fermi energy is    -2.5295 ev

!    total energy              =  -21096.12482712 Ry
     Harris-Foulkes estimate   =  -21096.12482553 Ry
     estimated scf accuracy    <          9.3E-11 Ry

     The total energy is the sum of the following terms:

     one-electron contribution = -745208.10417842 Ry
     hartree contribution      =  372503.72758221 Ry
     xc contribution           =   -2235.82893438 Ry
     ewald contribution        =  358718.92118903 Ry
     Dispersion Correction     =      -1.40157708 Ry
     one-center paw contrib.   =   -4873.44005130 Ry
     smearing contrib. (-TS)   =       0.00114281 Ry

     total magnetization       =   161.43 Bohr mag/cell
     absolute magnetization    =   168.11 Bohr mag/cell

     convergence has been achieved in  15 iterations

     negative rho (up, down):  2.467E-02 1.955E-02

     Forces acting on atoms (cartesian axes, Ry/au):

     atom    1 type  1   force =     0.00043303    0.00001208    0.00974882
     atom    2 type  1   force =    -0.00114578    0.00160333   -0.00548794
     atom    3 type  1   force =    -0.00008075    0.00009967    0.00997465
     atom    4 type  1   force =    -0.00010246    0.00018157   -0.01099204
     atom    5 type  1   force =    -0.00001773   -0.00000262   -0.00001147
     atom    6 type  1   force =     0.00000939   -0.00000316    0.00004333
     atom    7 type  1   force =     0.00001141   -0.00000140   -0.00005152
     atom    8 type  1   force =     0.00003222   -0.00001002    0.00001732
     atom    9 type  1   force =    -0.00005099   -0.00004074    0.01000791
     atom   10 type  1   force =    -0.00015032   -0.00013211    0.00902790
     atom   11 type  1   force =     0.00012472   -0.00020321   -0.01110129
     atom   12 type  1   force =    -0.00047053   -0.00025799   -0.01020075
     atom   13 type  1   force =     0.00000018   -0.00000072    0.00000317
     atom   14 type  1   force =     0.00000898    0.00000891   -0.00002348
     atom   15 type  1   force =    -0.00002852   -0.00001359    0.00002930
     atom   16 type  1   force =    -0.00002266   -0.00000903   -0.00000561
     atom   17 type  1   force =     0.00008449   -0.00012762    0.00992824
     atom   18 type  1   force =     0.00017629   -0.00013518   -0.01101425
     atom   19 type  1   force =    -0.00001121    0.00008026    0.01007506
     atom   20 type  1   force =    -0.00004443   -0.00012922   -0.00641064
     atom   21 type  1   force =     0.00000132    0.00001328   -0.00005746
     atom   22 type  1   force =    -0.00000185    0.00003504    0.00001501
     atom   23 type  1   force =    -0.00000878    0.00000582   -0.00005404
     atom   24 type  1   force =    -0.00005153    0.00008172    0.00002586
     atom   25 type  1   force =     0.00003254   -0.00000921    0.00812023
     atom   26 type  1   force =     0.00004523   -0.00026076    0.00981945
     atom   27 type  1   force =     0.00001139   -0.00010817   -0.01108364
     atom   28 type  1   force =     0.00034914   -0.00020018   -0.01048741
     atom   29 type  1   force =     0.00000177    0.00000367   -0.00015256
     atom   30 type  1   force =     0.00002403   -0.00002021   -0.00010243
     atom   31 type  1   force =     0.00007469    0.00005082    0.00007382
     atom   32 type  1   force =     0.00003184    0.00002168    0.00001681
     atom   33 type  1   force =    -0.00023501   -0.00008034    0.00966073
     atom   34 type  1   force =     0.00027422   -0.00009999   -0.01102705
     atom   35 type  1   force =     0.00016864    0.00041390    0.00980753
     atom   36 type  1   force =     0.00103239   -0.00149302   -0.00550724
     atom   37 type  1   force =     0.00001977    0.00001743    0.00000493
     atom   38 type  1   force =    -0.00004044   -0.00000620    0.00000865
     atom   39 type  1   force =    -0.00000945   -0.00001501   -0.00000950
     atom   40 type  1   force =    -0.00000452    0.00001089    0.00005061
     atom   41 type  1   force =     0.00006816    0.00008608    0.00711517
     atom   42 type  1   force =    -0.00022906    0.00013687    0.00981515
     atom   43 type  1   force =     0.00011640    0.00017919   -0.00975085
     atom   44 type  1   force =    -0.00012841    0.00039357   -0.01047492
     atom   45 type  1   force =     0.00000560    0.00000254   -0.00003053
     atom   46 type  1   force =    -0.00001232    0.00002840   -0.00009883
     atom   47 type  1   force =     0.00004445    0.00002964    0.00004261
     atom   48 type  1   force =     0.00003115    0.00002554    0.00002547
     atom   49 type  1   force =     0.00011134   -0.00006830    0.01012341
     atom   50 type  1   force =    -0.00007280   -0.00009588   -0.00638669
     atom   51 type  1   force =    -0.00015396   -0.00019098    0.00962160
     atom   52 type  1   force =     0.00001566    0.00033009   -0.01100892
     atom   53 type  1   force =     0.00000414   -0.00000852   -0.00005085
     atom   54 type  1   force =     0.00006049   -0.00007780    0.00002104
     atom   55 type  1   force =     0.00002407    0.00001036    0.00000121
     atom   56 type  1   force =    -0.00002054   -0.00003857    0.00001281
     atom   57 type  1   force =    -0.00007543   -0.00002368    0.01001622
     atom   58 type  1   force =     0.00004875    0.00000376    0.00898299
     atom   59 type  1   force =    -0.00013646    0.00022437   -0.01108878
     atom   60 type  1   force =     0.00002532   -0.00008725   -0.01099525
     atom   61 type  1   force =    -0.00000178   -0.00000023    0.00000465
     atom   62 type  1   force =    -0.00001029   -0.00000614   -0.00002064
     atom   63 type  1   force =    -0.00002922   -0.00002353    0.00003181
     atom   64 type  1   force =    -0.00008171   -0.00005922    0.00005798
     atom   65 type  2   force =    -0.00002348   -0.00001988    0.00001035
     atom   66 type  3   force =     0.00006707    0.00003311    0.00003024
     atom   67 type  3   force =    -0.00009193   -0.00005297    0.00001557
     atom   68 type  3   force =    -0.00002588   -0.00001093    0.00011083

     Total force =     0.000408     Total SCF correction =     0.000048
     SCF correction compared to forces is large: reduce conv_thr to get better values

     bfgs converged in  12 scf cycles and  11 bfgs steps
     (criteria: energy <  7.3E-07 Ry, force <  3.9E-04 Ry/Bohr)

     End of BFGS Geometry Optimization

     Final energy   =  -21096.1248271159 Ry
Begin final coordinates

ATOMIC_POSITIONS (angstrom)
Fe       1.654912953   1.170200133   0.000000000    0   0   0
Fe       0.000000000   0.000000000   2.026984232    0   0   0
Fe       4.964738858   3.510600399   0.000000000    0   0   0
Fe       3.309825906   2.340400266   2.026984232    0   0   0
Fe       1.650451379   1.168151062   4.024229448
Fe       3.307031065   9.374267690   6.015949699
Fe       4.961298612   3.516782254   4.013376432
Fe       3.307257686   2.331758351   6.004809423
Fe       2.482363858   3.510600399   0.000000000    0   0   0
Fe       4.137287953   1.170200133   0.000000000    0   0   0
Fe       0.827450906   2.340400266   2.026984232    0   0   0
Fe       2.482375000   0.000000000   2.026984232    0   0   0
Fe       2.482599086   3.509678963   4.028545216
Fe       4.130576628   1.165459704   4.020535196
Fe       0.820101639   2.346787168   5.994116985
Fe       2.482648183   0.000352189   6.007795562
Fe       6.619662953   1.170200133   0.000000000    0   0   0
Fe       4.964750000   0.000000000   2.026984232    0   0   0
Fe       9.929488858   3.510600399   0.000000000    0   0   0
Fe       8.274575906   2.340400266   2.026984232    0   0   0
Fe       6.624354383   1.164814545   4.013458241
Fe       4.955614378   0.000397819   6.004693955
Fe       9.932427444   3.503504345   4.012022675
Fe       8.285500019   2.324672109   6.088278850
Fe       7.447113858   3.510600399   0.000000000    0   0   0
Fe       9.102037953   1.170200133   0.000000000    0   0   0
Fe       5.792200906   2.340400266   2.026984232    0   0   0
Fe       7.447125000   0.000000000   2.026984232    0   0   0
Fe       7.446813775   3.510194197   4.045981839
Fe       9.094194945   1.179008074   4.055679876
Fe       5.745205745   2.307151900   5.935162234
Fe      10.759707361   9.373499375   5.995029417
Fe       3.309814764   5.851000664   0.000000000    0   0   0
Fe       1.654901811   4.680800531   2.026984232    0   0   0
Fe       6.619640670   8.191400930   0.000000000    0   0   0
Fe       4.964727717   7.021200797   2.026984232    0   0   0
Fe       3.314831853   5.853724700   4.028223290
Fe      11.588617694   4.681570427   5.999468341
Fe       6.616082388   8.188171263   4.024223800
Fe       4.975348678   7.014956894   6.015999448
Fe       4.137265670   8.191400930   0.000000000    0   0   0
Fe       5.792189764   5.851000664   0.000000000    0   0   0
Fe       2.482352717   7.021200797   2.026984232    0   0   0
Fe       4.137276811   4.680800531   2.026984232    0   0   0
Fe       4.135489242   8.190564313   4.026352724
Fe       5.797727375   5.840929464   4.055690054
Fe      12.400422376   7.013364510   6.017169977
Fe       4.149379987   4.679647822   5.994993164
Fe       8.274564764   5.851000664   0.000000000    0   0   0
Fe       6.619651811   4.680800531   2.026984232    0   0   0
Fe      11.584390670   8.191400930   0.000000000    0   0   0
Fe       9.929477717   7.021200797   2.026984232    0   0   0
Fe       8.268921517   5.856063821   4.011887575
Fe       6.608805714   4.695704689   6.088021795
Fe      11.588426881   8.195551431   4.028288579
Fe       9.931448843   7.024847262   5.999780688
Fe       9.102015670   8.191400930   0.000000000    0   0   0
Fe      10.756939764   5.851000664   0.000000000    0   0   0
Fe       7.447102717   7.021200797   2.026984232    0   0   0
Fe       9.102026811   4.680800531   2.026984232    0   0   0
Fe       9.101201312   8.191999272   4.028592127
Fe      10.763277939   5.855516219   4.018020218
Fe       7.450536170   7.012094621   5.994205502
Fe       9.150468545   4.715092486   5.935086038
N        7.447254400   3.510479754   7.475138070
H        8.111897555   3.981184774   8.103691646
H        6.783059170   3.040497580   8.104707738
H        4.544408972   8.479715158   6.942054006
End final coordinates

     Writing output data file Fe_NH2_H_paper_480c_ESM_p25.save/

     General routines

     Parallel routines

   This run was terminated on:  23:38:58   9Jun2022

   JOB DONE.