     Program PWSCF v.6.7MaX starts on  8Jul2022 at 17:28:54

     K-points division:     npool     =       8
     R & G space division:  proc/nbgrp/npool/nimage =      32
     Waiting for input...
     Reading input from standard input
Warning: card &CELL ignored
Warning: card / ignored

     Current dimensions of program PWSCF are:
     Max number of different atomic species (ntypx) = 10
     Max number of k-points (npk) =  40000
     Max angular momentum in pseudopotentials (lmaxx) =  3
     file Fe.pbe-spn-kjpaw_psl.0.2.1.UPF: wavefunction(s)  3D renormalized

     IMPORTANT: XC functional enforced from input :
     Exchange-correlation= PBE
                           (   1   4   3   4   0   0   0)
     Any further DFT definition will be discarded
     Please, verify this is what you really want

     Parameters for Dispersion (Grimme-D2) Correction:
       atom      VdW radius       C_6

        Fe         2.952        374.666
        N          2.640         42.670
        H          1.892          4.857

     bravais-lattice index     =            0
     lattice parameter (alat)  =      18.7640  a.u.
     unit-cell volume          =   16360.3161 (a.u.)^3
     number of atoms/cell      =           66
     number of atomic types    =            3
     number of electrons       =      1030.00
     number of Kohn-Sham states=          618
     kinetic-energy cutoff     =      60.0000  Ry
     charge density cutoff     =     480.0000  Ry
     scf convergence threshold =      1.0E-08
     mixing beta               =       0.2000
     number of iterations used =           10  local-TF  mixing
     energy convergence thresh.=      7.3E-07
     force convergence thresh. =      3.9E-04
     Exchange-correlation= PBE
                           (   1   4   3   4   0   0   0)
     nstep                     =           50

     Effective Screening Medium Method
     Boundary Conditions: Metal-Slab-Metal
     field strength                   =     0.00 Ry/a.u.
     grid points for fit at edges     =        4

     celldm(1)=  18.764036  celldm(2)=   0.000000  celldm(3)=   0.000000
     celldm(4)=   0.000000  celldm(5)=   0.000000  celldm(6)=   0.000000

     crystal axes: (cart. coord. in units of alat)
               a(1) = (   1.000000   0.000000   0.000000 )
               a(2) = (   0.333330   0.942807   0.000000 )
               a(3) = (   0.000000   0.000000   2.626577 )

     reciprocal axes: (cart. coord. in units 2 pi/alat)
               b(1) = (  1.000000 -0.353551  0.000000 )
               b(2) = (  0.000000  1.060663  0.000000 )
               b(3) = (  0.000000  0.000000  0.380724 )

     PseudoPot. # 1 for Fe read from file:
     ../../SSSP/Fe.pbe-spn-kjpaw_psl.0.2.1.UPF
     MD5 check sum: e86618425769142926afa95317d90200
     Pseudo is Projector augmented-wave + core cor, Zval = 16.0
     Generated using "atomic" code by A. Dal Corso  v.5.0.99 svn rev. 10869
     Shape of augmentation charge: PSQ
     Using radial grid of 1191 points,  6 beta functions with:
                l(1) =   0
                l(2) =   0
                l(3) =   1
                l(4) =   1
                l(5) =   2
                l(6) =   2
     Q(r) pseudized with 0 coefficients

     PseudoPot. # 2 for N  read from file:
     ../../SSSP/N.pbe-n-radius_5.UPF
     MD5 check sum: 16739722b17309cd8fe442a2ace49922
     Pseudo is Ultrasoft + core correction, Zval =  5.0
     Generated using "atomic" code by A. Dal Corso  v.5.1
     Using radial grid of 1085 points,  4 beta functions with:
                l(1) =   0
                l(2) =   0
                l(3) =   1
                l(4) =   1
     Q(r) pseudized with 0 coefficients

     PseudoPot. # 3 for H  read from file:
     ../../SSSP/H.pbe-rrkjus_psl.1.0.0.UPF
     MD5 check sum: f52b6d4d1c606e5624b1dc7b2218f220
     Pseudo is Ultrasoft, Zval =  1.0
     Generated using "atomic" code by A. Dal Corso  v.5.1
     Using radial grid of  929 points,  2 beta functions with:
                l(1) =   0
                l(2) =   0
     Q(r) pseudized with 0 coefficients

     atomic species   valence    mass     pseudopotential
        Fe            16.00    55.84500     Fe( 1.00)
        N              5.00    14.00700     N ( 1.00)
        H              1.00     1.00800     H ( 1.00)

     Starting magnetic structure
     atomic species   magnetization
        Fe           0.100
        N            0.100
        H            0.100

     No symmetry found

   Cartesian axes

     site n.     atom                  positions (alat units)
         1           Fe  tau(   1) = (   0.1666663   0.1178509   0.0000000  )
         2           Fe  tau(   2) = (   0.0000000   0.0000000   0.2041376  )
         3           Fe  tau(   3) = (   0.4999989   0.3535526   0.0000000  )
         4           Fe  tau(   4) = (   0.3333326   0.2357017   0.2041376  )
         5           Fe  tau(   5) = (   0.1686761   0.1178127   0.4053879  )
         6           Fe  tau(   6) = (   0.3341315   0.9417505   0.6038790  )
         7           Fe  tau(   7) = (   0.5010185   0.3547334   0.4069946  )
         8           Fe  tau(   8) = (   0.3389328   0.2353237   0.6057351  )
         9           Fe  tau(   9) = (   0.2499989   0.3535526   0.0000000  )
        10           Fe  tau(  10) = (   0.4166663   0.1178509   0.0000000  )
        11           Fe  tau(  11) = (   0.0833326   0.2357017   0.2041376  )
        12           Fe  tau(  12) = (   0.2500000   0.0000000   0.2041376  )
        13           Fe  tau(  13) = (   0.2500084   0.3535729   0.4069214  )
        14           Fe  tau(  14) = (   0.4190425   0.1195526   0.4061230  )
        15           Fe  tau(  15) = (   0.0867832   0.2339355   0.6042259  )
        16           Fe  tau(  16) = (   0.2513422   0.0009614   0.6055814  )
        17           Fe  tau(  17) = (   0.6666663   0.1178509   0.0000000  )
        18           Fe  tau(  18) = (   0.5000000   0.0000000   0.2041376  )
        19           Fe  tau(  19) = (   0.9999989   0.3535526   0.0000000  )
        20           Fe  tau(  20) = (   0.8333326   0.2357017   0.2041376  )
        21           Fe  tau(  21) = (   0.6681148   0.1184360   0.4069829  )
        22           Fe  tau(  22) = (   0.5015260   0.0054035   0.6057602  )
        23           Fe  tau(  23) = (   0.9990254   0.3524190   0.4069836  )
        24           Fe  tau(  24) = (   0.8421952   0.2232795   0.6023458  )
        25           Fe  tau(  25) = (   0.7499989   0.3535526   0.0000000  )
        26           Fe  tau(  26) = (   0.9166663   0.1178509   0.0000000  )
        27           Fe  tau(  27) = (   0.5833326   0.2357017   0.2041376  )
        28           Fe  tau(  28) = (   0.7500000   0.0000000   0.2041376  )
        29           Fe  tau(  29) = (   0.7500309   0.3535694   0.4028860  )
        30           Fe  tau(  30) = (   0.9184071   0.1154439   0.4036023  )
        31           Fe  tau(  31) = (   0.5922594   0.2420028   0.6095128  )
        32           Fe  tau(  32) = (   1.0839296   0.9390490   0.6042254  )
        33           Fe  tau(  33) = (   0.3333315   0.5892543   0.0000000  )
        34           Fe  tau(  34) = (   0.1666652   0.4714034   0.2041376  )
        35           Fe  tau(  35) = (   0.6666640   0.8249560   0.0000000  )
        36           Fe  tau(  36) = (   0.4999978   0.7071052   0.2041376  )
        37           Fe  tau(  37) = (   0.3313617   0.5893276   0.4053908  )
        38           Fe  tau(  38) = (   1.1611812   0.4718200   0.6057582  )
        39           Fe  tau(  39) = (   0.6673001   0.8268787   0.4053878  )
        40           Fe  tau(  40) = (   0.4992589   0.7082242   0.6038060  )
        41           Fe  tau(  41) = (   0.4166640   0.8249560   0.0000000  )
        42           Fe  tau(  42) = (   0.5833315   0.5892543   0.0000000  )
        43           Fe  tau(  43) = (   1.2499978   0.7071052   0.2041376  )
        44           Fe  tau(  44) = (   0.4166652   0.4714034   0.2041376  )
        45           Fe  tau(  45) = (   0.4166750   0.8249924   0.4051227  )
        46           Fe  tau(  46) = (   0.5816440   0.5916935   0.4035888  )
        47           Fe  tau(  47) = (   1.2487180   0.7062162   0.6055774  )
        48           Fe  tau(  48) = (   0.4133036   0.4732283   0.6042394  )
        49           Fe  tau(  49) = (   0.8333315   0.5892543   0.0000000  )
        50           Fe  tau(  50) = (   0.6666652   0.4714034   0.2041376  )
        51           Fe  tau(  51) = (   1.1666640   0.8249560   0.0000000  )
        52           Fe  tau(  52) = (   0.9999978   0.7071052   0.2041376  )
        53           Fe  tau(  53) = (   0.8319388   0.5887338   0.4069947  )
        54           Fe  tau(  54) = (   0.6578912   0.4839290   0.6023306  )
        55           Fe  tau(  55) = (   1.1660796   0.8230901   0.4053873  )
        56           Fe  tau(  56) = (   0.9985750   0.7017844   0.6057248  )
        57           Fe  tau(  57) = (   0.9166640   0.8249560   0.0000000  )
        58           Fe  tau(  58) = (   1.0833315   0.5892543   0.0000000  )
        59           Fe  tau(  59) = (   0.7499978   0.7071052   0.2041376  )
        60           Fe  tau(  60) = (   0.9166652   0.4714034   0.2041376  )
        61           Fe  tau(  61) = (   0.9166941   0.8250019   0.4069198  )
        62           Fe  tau(  62) = (   1.0809968   0.5876199   0.4061253  )
        63           Fe  tau(  63) = (   0.7494825   0.7109756   0.6042358  )
        64           Fe  tau(  64) = (   0.9078936   0.4651830   0.6094990  )
        65           N   tau(  65) = (   0.7501544   0.3536979   0.7049393  )
        66           H   tau(  66) = (   0.7501627   0.3537519   0.8083875  )

     number of k points=    10  Methfessel-Paxton smearing, width (Ry)=  0.0100
                       cart. coord. in units 2pi/alat
        k(    1) = (   0.0000000   0.0000000   0.0000000), wk =   0.0625000
        k(    2) = (   0.0000000   0.2651656   0.0000000), wk =   0.1250000
        k(    3) = (   0.0000000  -0.5303313   0.0000000), wk =   0.0625000
        k(    4) = (   0.2500000  -0.0883878   0.0000000), wk =   0.1250000
        k(    5) = (   0.2500000   0.1767779   0.0000000), wk =   0.1250000
        k(    6) = (   0.2500000  -0.6187190   0.0000000), wk =   0.1250000
        k(    7) = (   0.2500000  -0.3535534   0.0000000), wk =   0.1250000
        k(    8) = (  -0.5000000   0.1767755   0.0000000), wk =   0.0625000
        k(    9) = (  -0.5000000   0.4419412   0.0000000), wk =   0.1250000
        k(   10) = (  -0.5000000  -0.3535558   0.0000000), wk =   0.0625000

     Check: negative core charge=   -0.000039
     Generating pointlists ...
     new r_m :   0.0783 (alat units)  1.4686 (a.u.) for type    1
     new r_m :   0.0427 (alat units)  0.8007 (a.u.) for type    2
     new r_m :   0.0427 (alat units)  0.8007 (a.u.) for type    3

     Initial potential from superposition of free atoms

     starting charge 1029.97193, renormalised to 1030.00000

     negative rho (up, down):  1.347E-02 1.102E-02
     Starting wfcs are  837 randomized atomic wfcs
     Checking if some PAW data can be deallocated...

     Self-consistent Calculation

[...]
   -89.3071 -89.3035 -89.3034 -89.3026 -89.2974 -89.2961 -89.2942 -89.2842
   -89.2839 -89.2837 -89.2835 -89.2833 -89.2821 -89.2771 -89.2766 -89.2711
   -89.2711 -89.2632 -89.2618 -89.2618 -89.2613 -89.2607 -89.2604 -89.2598
   -89.2598 -89.2587 -89.2546 -89.2493 -89.2394 -89.2392 -89.2388 -89.2384
   -56.2795 -56.2640 -55.9354 -55.9304 -55.7828 -55.7662 -55.7231 -55.7201
   -55.6537 -55.6524 -55.6504 -55.6502 -55.6445 -55.6436 -55.6429 -55.6352
   -55.6348 -55.6320 -55.6312 -55.6274 -55.6262 -55.6258 -55.6233 -55.6231
   -55.6221 -55.6163 -55.6123 -55.6122 -55.6088 -55.6023 -55.5998 -55.5995
   -55.5983 -55.5894 -55.5842 -55.5839 -55.5832 -55.5829 -55.5776 -55.5752
   -55.5719 -55.5637 -55.5627 -55.5610 -55.5535 -55.5532 -55.5492 -55.5478
   -55.5473 -55.5466 -55.5425 -55.5420 -55.5395 -55.5373 -55.5366 -55.5359
   -55.5334 -55.5320 -55.5308 -55.5294 -55.5278 -55.5272 -55.5271 -55.5230
   -55.5165 -55.5142 -55.5141 -55.5113 -55.5038 -55.5010 -55.5008 -55.4958
   -55.4872 -55.4835 -55.4808 -55.4733 -55.4666 -55.4642 -55.4639 -55.4629
   -55.4609 -55.4534 -55.4533 -55.4497 -55.4445 -55.4404 -55.4373 -55.4340
   -55.4339 -55.4325 -55.4306 -55.4289 -55.4244 -55.4230 -55.4222 -55.4201
   -55.4199 -55.4178 -55.4175 -55.4146 -55.4030 -55.4010 -55.3983 -55.3959
   -55.3945 -55.3908 -55.3887 -55.3882 -55.3877 -55.3863 -55.3846 -55.3835
   -55.3825 -55.3824 -55.3773 -55.3764 -55.3762 -55.3745 -55.3737 -55.3701
   -55.3687 -55.3602 -55.3596 -55.3578 -55.3575 -55.3523 -55.3516 -55.3507
   -55.3476 -55.3465 -55.3461 -55.3457 -55.3391 -55.3356 -55.3334 -55.3327
   -55.3303 -55.3287 -55.3277 -55.3273 -55.3269 -55.3265 -55.3227 -55.3217
   -55.3208 -55.3207 -55.3174 -55.3173 -55.3155 -55.3150 -55.3147 -55.3119
   -55.3084 -55.3074 -55.3052 -55.3043 -55.3040 -55.3023 -55.2997 -55.2987
   -55.2985 -55.2969 -55.2960 -55.2951 -55.2948 -55.2946 -55.2940 -55.2933
   -55.2922 -55.2917 -55.2909 -55.2906 -55.2874 -55.2869 -55.2860 -55.2832
   -55.2826 -55.2802 -55.2800 -55.2798 -55.2796 -55.2729 -55.2720 -55.2716
   -55.2706 -55.2690 -55.2683 -55.2661 -55.2660 -55.2650 -55.2615 -55.2612
   -20.5315 -12.0463 -11.3397 -11.2531 -10.7823 -10.7010 -10.0922  -9.9320
    -9.6694  -9.3898  -9.2794  -9.1291  -8.7534  -8.7359  -8.6888  -8.6396
    -8.2841  -8.2585  -7.9215  -7.9129  -7.9008  -7.8824  -7.8592  -7.8243
    -7.8036  -7.7855  -7.7687  -7.7276  -7.7159  -7.6652  -7.3647  -7.3424
    -7.3344  -7.3325  -7.2991  -7.2894  -7.1408  -7.0993  -6.8827  -6.8648
    -6.8587  -6.8351  -6.8232  -6.8047  -6.7963  -6.7738  -6.7353  -6.7216
    -6.7069  -6.6232  -6.5916  -6.5849  -6.5695  -6.5631  -6.5392  -6.4710
    -6.3240  -6.3169  -6.2964  -6.2810  -6.2692  -6.2637  -6.0607  -6.0406
    -6.0283  -6.0004  -5.9952  -5.9714  -5.8832  -5.8604  -5.8399  -5.8148
    -5.8099  -5.7785  -5.7697  -5.7665  -5.7641  -5.7563  -5.7415  -5.7369
    -5.7093  -5.7011  -5.6651  -5.6576  -5.6506  -5.6470  -5.6396  -5.6359
    -5.6328  -5.6165  -5.5950  -5.5236  -5.5102  -5.4312  -5.4255  -5.4170
    -5.3535  -5.3110  -5.2940  -5.2932  -5.2888  -5.2815  -5.2751  -5.2595
    -5.2517  -5.2456  -5.2381  -5.2157  -5.2137  -5.2100  -5.2085  -5.2017
    -5.1917  -5.1846  -5.1741  -5.1669  -5.1612  -5.1486  -5.1481  -5.1425
    -5.1397  -5.1388  -5.1337  -5.1305  -5.1154  -5.1129  -5.1018  -5.0828
    -5.0654  -5.0606  -5.0585  -5.0571  -5.0465  -5.0379  -5.0271  -5.0260
    -5.0238  -4.9938  -4.9919  -4.9870  -4.9369  -4.9252  -4.8409  -4.8214
    -4.7909  -4.7760  -4.7647  -4.7636  -4.7512  -4.7461  -4.7340  -4.7231
    -4.7116  -4.6585  -4.6567  -4.6120  -4.6117  -4.5922  -4.5832  -4.5793
    -4.5673  -4.5525  -4.5294  -4.5189  -4.5078  -4.5037  -4.4711  -4.4188
    -4.3718  -4.3491  -4.3268  -4.3019  -4.2639  -4.2600  -4.2540  -4.2539
    -4.2383  -4.2344  -4.2257  -4.2037  -4.2001  -4.1931  -4.1740  -4.1514
    -4.1439  -4.1415  -4.1368  -4.1067  -4.0913  -3.8677  -3.8557  -3.8414
    -3.7906  -3.7482  -3.7456  -3.7153  -3.5755  -3.5333  -3.4757  -3.4672
    -3.4450  -3.4016  -3.4013  -3.3762  -3.3711  -3.3477  -3.3457  -3.3049
    -3.3016  -3.2933  -3.2915  -3.2504  -3.2017  -3.2013  -3.1836  -3.1798
    -3.1633  -3.1402  -3.1384  -3.1083  -3.0993  -3.0903  -3.0628  -3.0101
[...]
    -2.6632  -2.6584  -2.6191  -2.6159  -2.5837  -2.5748  -2.5539  -2.5451
    -2.5444  -2.5441  -2.5390  -2.5259  -2.5145  -2.5075  -2.4939  -2.4844
    -2.4741  -2.4740  -2.4714  -2.4712  -2.4694  -2.4550  -2.4520  -2.4293
    -2.4236  -2.4211  -2.4137  -2.4030  -2.3955  -2.3889  -2.3787  -2.3728
    -2.3712  -2.3698  -2.3649  -2.3642  -2.3617  -2.3415  -2.3346  -2.3328
    -2.3178  -2.3023  -2.3006  -2.2997  -2.2976  -2.2881  -2.2872  -2.2847
    -2.2754  -2.2544  -2.2513  -2.2393  -2.2047  -2.1845  -2.1796  -2.1783
    -2.1683  -2.1592  -2.1569  -2.1478  -2.1377  -2.1327  -2.1184  -2.1091
    -2.1082  -2.1053  -2.0994  -2.0923  -2.0878  -2.0854  -2.0820  -2.0739
    -2.0702  -2.0689  -2.0688  -2.0434  -2.0407  -2.0329  -2.0325  -2.0230
    -2.0221  -2.0169  -2.0090  -2.0047  -2.0033  -1.9942  -1.9915  -1.9734
    -1.9456  -1.9248  -1.9247  -1.8996  -1.8960  -1.8788  -1.8099  -1.7771
    -1.6909  -1.6863  -1.6838  -1.6662  -1.4839  -1.4735  -1.4709  -1.4667
    -1.4204  -1.4057  -1.3982  -1.3973  -1.3775  -1.3738  -1.3685  -1.2413
    -1.1251  -1.1088

     the Fermi energy is    -4.2270 ev

!    total energy              =  -21093.73440929 Ry
     estimated scf accuracy    <          7.7E-11 Ry
     smearing contrib. (-TS)   =       0.00152822 Ry
     internal energy E=F+TS    =  -21093.73593751 Ry

     The total energy is F=E-TS. E is the sum of the following terms:
     one-electron contribution = -743717.99798468 Ry
     hartree contribution      =  371694.29786024 Ry
     xc contribution           =   -2234.27843252 Ry
     ewald contribution        =  358039.07770417 Ry
     Dispersion Correction     =      -1.39249688 Ry
     one-center paw contrib.   =   -4873.44258783 Ry

     total magnetization       =   161.00 Bohr mag/cell
     absolute magnetization    =   167.60 Bohr mag/cell

     convergence has been achieved in  16 iterations

     negative rho (up, down):  1.184E-02 1.612E-02

     Forces acting on atoms (cartesian axes, Ry/au):

     atom    1 type  1   force =     0.00051443   -0.00031385    0.00927829
     atom    2 type  1   force =     0.00173745   -0.00244508   -0.01303689
     atom    3 type  1   force =    -0.00036660   -0.00032189    0.00896402
     atom    4 type  1   force =     0.00046676    0.00058670   -0.00810578
     atom    5 type  1   force =     0.00000695   -0.00001268   -0.00009324
     atom    6 type  1   force =    -0.00000647    0.00000441   -0.00005602
     atom    7 type  1   force =    -0.00000505   -0.00001365   -0.00012189
     atom    8 type  1   force =    -0.00002993    0.00002333   -0.00000880
     atom    9 type  1   force =     0.00000791    0.00001382    0.00959804
     atom   10 type  1   force =    -0.00018908   -0.00013216    0.00933174
     atom   11 type  1   force =    -0.00032660    0.00127702   -0.00705975
     atom   12 type  1   force =     0.00094848    0.00075238   -0.01130983
     atom   13 type  1   force =     0.00000256   -0.00000587   -0.00009395
     atom   14 type  1   force =    -0.00001351   -0.00001784   -0.00011091
     atom   15 type  1   force =     0.00007796    0.00001998   -0.00002819
     atom   16 type  1   force =     0.00000302   -0.00000897   -0.00005015
     atom   17 type  1   force =    -0.00041893   -0.00022481    0.00891767
     atom   18 type  1   force =     0.00071367    0.00029425   -0.00811499
     atom   19 type  1   force =     0.00036567    0.00031597    0.00891177
     atom   20 type  1   force =     0.00063157   -0.00085065   -0.01133774
     atom   21 type  1   force =    -0.00001136   -0.00000631   -0.00012658
     atom   22 type  1   force =     0.00002596   -0.00004824   -0.00001780
     atom   23 type  1   force =     0.00000324    0.00000420   -0.00012215
     atom   24 type  1   force =     0.00004602   -0.00007534   -0.00005395
     atom   25 type  1   force =     0.00001684   -0.00000966    0.00791708
     atom   26 type  1   force =    -0.00071041    0.00098736    0.00969519
     atom   27 type  1   force =    -0.00009047   -0.00010872   -0.00648403
     atom   28 type  1   force =    -0.00107292    0.00076888   -0.00705336
     atom   29 type  1   force =    -0.00000163   -0.00000396   -0.00007842
     atom   30 type  1   force =    -0.00002029    0.00002506   -0.00006031
     atom   31 type  1   force =    -0.00014458   -0.00011956   -0.00004388
     atom   32 type  1   force =    -0.00005409   -0.00007744   -0.00003008
     atom   33 type  1   force =    -0.00050537    0.00030322    0.00928338
     atom   34 type  1   force =    -0.00049209   -0.00057132   -0.00810916
     atom   35 type  1   force =    -0.00012983    0.00056837    0.00929994
     atom   36 type  1   force =    -0.00183290    0.00258431   -0.01303257
     atom   37 type  1   force =    -0.00000088   -0.00000242   -0.00008954
     atom   38 type  1   force =     0.00002555   -0.00004406   -0.00001800
     atom   39 type  1   force =    -0.00000275   -0.00000440   -0.00008845
     atom   40 type  1   force =     0.00000762   -0.00001852   -0.00006338
     atom   41 type  1   force =     0.00000487   -0.00000283    0.00815218
     atom   42 type  1   force =     0.00071093   -0.00097438    0.00977678
     atom   43 type  1   force =    -0.00101675   -0.00062557   -0.01131381
     atom   44 type  1   force =     0.00033555   -0.00124324   -0.00704079
     atom   45 type  1   force =     0.00000446   -0.00000898   -0.00005626
     atom   46 type  1   force =     0.00002140   -0.00003652   -0.00005870
     atom   47 type  1   force =     0.00000038   -0.00000902   -0.00004967
     atom   48 type  1   force =    -0.00008146   -0.00004021   -0.00002476
     atom   49 type  1   force =     0.00042651    0.00022979    0.00897976
     atom   50 type  1   force =    -0.00053688    0.00078166   -0.01138751
     atom   51 type  1   force =     0.00013616   -0.00059444    0.00928531
     atom   52 type  1   force =    -0.00070254   -0.00021415   -0.00810168
     atom   53 type  1   force =     0.00001007   -0.00000447   -0.00012350
     atom   54 type  1   force =    -0.00004582    0.00005415   -0.00004562
     atom   55 type  1   force =     0.00000399   -0.00001330   -0.00009310
     atom   56 type  1   force =    -0.00002029    0.00002582   -0.00001104
     atom   57 type  1   force =    -0.00003752   -0.00001388    0.00960381
     atom   58 type  1   force =     0.00018303    0.00014412    0.00932815
     atom   59 type  1   force =     0.00107591   -0.00070528   -0.00704150
     atom   60 type  1   force =     0.00015270    0.00007443   -0.00649028
     atom   61 type  1   force =     0.00000043   -0.00000779   -0.00009427
     atom   62 type  1   force =     0.00001616    0.00000371   -0.00011372
     atom   63 type  1   force =     0.00005850    0.00005535   -0.00002740
     atom   64 type  1   force =     0.00014822    0.00008836   -0.00004388
     atom   65 type  2   force =    -0.00001280   -0.00002422   -0.00016640
     atom   66 type  3   force =    -0.00001109   -0.00003100    0.00021282

     Total force =     0.000612     Total SCF correction =     0.000027
     Energy error            =      6.1E-07
     Gradient error          =      2.1E-04

     bfgs converged in   7 scf cycles and   6 bfgs steps
     (criteria: energy <  7.3E-07 Ry, force <  3.9E-04 Ry/Bohr)

     End of BFGS Geometry Optimization

     Final energy   =  -21093.7344092876 Ry

     File ./Fe_NH_paper_480c_ESM_std.bfgs deleted, as requested
Begin final coordinates

ATOMIC_POSITIONS (angstrom)
Fe            1.6549129530        1.1702001330        0.0000000000    0   0   0
Fe            0.0000000000        0.0000000000        2.0269842320    0   0   0
Fe            4.9647388580        3.5106003990        0.0000000000    0   0   0
Fe            3.3098259060        2.3404002660        2.0269842320    0   0   0
Fe            1.6747106465        1.1699058595        4.0251707933
Fe            3.3179221966        9.3508323597        5.9948582337
Fe            4.9752208888        3.5222945465        4.0412557393
Fe            3.3653286864        2.3364748953        6.0131982394
Fe            2.4823638580        3.5106003990        0.0000000000    0   0   0
Fe            4.1372879530        1.1702001330        0.0000000000    0   0   0
Fe            0.8274509060        2.3404002660        2.0269842320    0   0   0
Fe            2.4823750000        0.0000000000        2.0269842320    0   0   0
Fe            2.4824481221        3.5107423848        4.0404473935
Fe            4.1610761982        1.1871947232        4.0326263044
Fe            0.8599124207        2.3225007812        5.9984253438
Fe            2.4952962092        0.0090687501        6.0117573643
Fe            6.6196629530        1.1702001330        0.0000000000    0   0   0
Fe            4.9647500000        0.0000000000        2.0269842320    0   0   0
Fe            9.9294888580        3.5106003990        0.0000000000    0   0   0
Fe            8.2745759060        2.3404002660        2.0269842320    0   0   0
Fe            6.6341981004        1.1762985133        4.0411084121
Fe            4.9797531006        0.0534707261        6.0134676101
Fe            9.9194543425        3.4992701557        4.0410911902
Fe            8.3618869600        2.2179325998        5.9801234854
Fe            7.4471138580        3.5106003990        0.0000000000    0   0   0
Fe            9.1020379530        1.1702001330        0.0000000000    0   0   0
Fe            5.7922009060        2.3404002660        2.0269842320    0   0   0
Fe            7.4471250000        0.0000000000        2.0269842320    0   0   0
Fe            7.4474577235        3.5106835545        4.0000778278
Fe            9.1193837779        1.1461691313        4.0070213385
Fe            5.8819744417        2.4037094075        6.0517104088
Fe           10.7637810977        9.3257843403        5.9984162308
Fe            3.3098147640        5.8510006640        0.0000000000    0   0   0
Fe            1.6549018110        4.6808005310        2.0269842320    0   0   0
Fe            6.6196406700        8.1914009300        0.0000000000    0   0   0
Fe            4.9647277170        7.0212007970        2.0269842320    0   0   0
Fe            3.2904367219        5.8515153790        4.0252031282
Fe           11.5300581879        4.6849744037        6.0134588270
Fe            6.6260633572        8.2102094019        4.0251805615
Fe            4.9573565551        7.0322994154        5.9940092413
Fe            4.1372656700        8.1914009300        0.0000000000    0   0   0
Fe            5.7921897640        5.8510006640        0.0000000000    0   0   0
Fe           12.4118527170        7.0212007970        2.0269842320    0   0   0
Fe            4.1372768110        4.6808005310        2.0269842320    0   0   0
Fe            4.1373777386        8.1917157126        4.0218644575
Fe            5.7754430468        5.8751673056        4.0068555586
Fe           12.3996645991        7.0125685893        6.0117029583
Fe            4.1057414990        4.6991409954        5.9987753966
Fe            8.2745647640        5.8510006640        0.0000000000    0   0   0
Fe            6.6196518110        4.6808005310        2.0269842320    0   0   0
Fe           11.5843906700        8.1914009300        0.0000000000    0   0   0
Fe            9.9294777170        7.0212007970        2.0269842320    0   0   0
Fe            8.2605908022        5.8454438025        4.0412600175
Fe            6.5332974881        4.8039862539        5.9799542707
Fe           11.5785163674        8.1730113849        4.0251502080
Fe            9.9154787803        6.9683211096        6.0131000281
Fe            9.1020156700        8.1914009300        0.0000000000    0   0   0
Fe           10.7569397640        5.8510006640        0.0000000000    0   0   0
Fe            7.4471027170        7.0212007970        2.0269842320    0   0   0
Fe            9.1020268110        4.6808005310        2.0269842320    0   0   0
Fe            9.1023238901        8.1918023310        4.0404388031
Fe           10.7335441804        5.8345852713        4.0326424351
Fe            7.4410786902        7.0578597797        5.9987524617
Fe            9.0137426212        4.6181004270        6.0515925449
N             7.4485809060        3.5118048346        6.9988203424
H             7.4486297151        3.5122628734        8.0267420097
End final coordinates

     Writing output data file ./Fe_NH_paper_480c_ESM_std.save/

     General routines

     Parallel routines

   This run was terminated on:  21:16:51   8Jul2022

   JOB DONE.