     Program PWSCF v.6.4.1 starts on 10Jun2022 at  2:13:59

     K-points division:     npool     =       8
     R & G space division:  proc/nbgrp/npool/nimage =      20
     Waiting for input...
     Reading input from standard input
Warning: card &CELL ignored
Warning: card / ignored

     Current dimensions of program PWSCF are:
     Max number of different atomic species (ntypx) = 10
     Max number of k-points (npk) =  40000
     Max angular momentum in pseudopotentials (lmaxx) =  3

     IMPORTANT: XC functional enforced from input :
     Exchange-correlation      = PBE ( 1  4  3  4 0 0)
     Any further DFT definition will be discarded
     Please, verify this is what you really want

               file Fe.pbe-spn-kjpaw_psl.0.2.1.UPF: wavefunction(s)  3D renormalized

     Parameters for Dispersion (Grimme-D2) Correction:
       atom      VdW radius       C_6

        Fe         2.952        374.666
        N          2.640         42.670
        H          1.892          4.857

     bravais-lattice index     =            0
     lattice parameter (alat)  =      18.7640  a.u.
     unit-cell volume          =   16360.3163 (a.u.)^3
     number of atoms/cell      =           68
     number of atomic types    =            3
     number of electrons       =      1032.00
     number of Kohn-Sham states=          619
     kinetic-energy cutoff     =      60.0000  Ry
     charge density cutoff     =     480.0000  Ry
     convergence threshold     =      1.0E-08
     mixing beta               =       0.2000
     number of iterations used =           10  local-TF  mixing
     Exchange-correlation      = PBE ( 1  4  3  4 0 0)
     nstep                     =           50

     Effective Screening Medium Method
     Boundary Conditions: Metal-Slab-Metal
     field strength                   =     0.01 Ry/a.u.
     grid points for fit at edges     =        4

     celldm(1)=  18.764036  celldm(2)=   0.000000  celldm(3)=   0.000000
     celldm(4)=   0.000000  celldm(5)=   0.000000  celldm(6)=   0.000000

     crystal axes: (cart. coord. in units of alat)
               a(1) = (   1.000000   0.000000   0.000000 )
               a(2) = (   0.333330   0.942807   0.000000 )
               a(3) = (   0.000000   0.000000   2.626577 )

     reciprocal axes: (cart. coord. in units 2 pi/alat)
               b(1) = (  1.000000 -0.353551  0.000000 )
               b(2) = (  0.000000  1.060663  0.000000 )
               b(3) = (  0.000000  0.000000  0.380724 )

     PseudoPot. # 1 for Fe read from file:
     ../../SSSP/Fe.pbe-spn-kjpaw_psl.0.2.1.UPF
     MD5 check sum: e86618425769142926afa95317d90200
     Pseudo is Projector augmented-wave + core cor, Zval = 16.0
     Generated using "atomic" code by A. Dal Corso v.5.0.99 svn rev. 10869
     Shape of augmentation charge: PSQ
     Using radial grid of 1191 points,  6 beta functions with:
                l(1) =   0
                l(2) =   0
                l(3) =   1
                l(4) =   1
                l(5) =   2
                l(6) =   2
     Q(r) pseudized with 0 coefficients

     PseudoPot. # 2 for N  read from file:
     ../../SSSP/N.pbe-n-radius_5.UPF
     MD5 check sum: 16739722b17309cd8fe442a2ace49922
     Pseudo is Ultrasoft + core correction, Zval =  5.0
     Generated using "atomic" code by A. Dal Corso v.5.1
     Using radial grid of 1085 points,  4 beta functions with:
                l(1) =   0
                l(2) =   0
                l(3) =   1
                l(4) =   1
     Q(r) pseudized with 0 coefficients

     PseudoPot. # 3 for H  read from file:
     ../../SSSP/H.pbe-rrkjus_psl.1.0.0.UPF
     MD5 check sum: f52b6d4d1c606e5624b1dc7b2218f220
     Pseudo is Ultrasoft, Zval =  1.0
     Generated using "atomic" code by A. Dal Corso v.5.1
     Using radial grid of  929 points,  2 beta functions with:
                l(1) =   0
                l(2) =   0
     Q(r) pseudized with 0 coefficients

     atomic species   valence    mass     pseudopotential
        Fe            16.00    55.84500     Fe( 1.00)
        N              5.00    14.00700     N ( 1.00)
        H              1.00     1.00800     H ( 1.00)

     Starting magnetic structure
     atomic species   magnetization
        Fe           0.100
        N            0.100
        H            0.100

     No symmetry found

   Cartesian axes

     site n.     atom                  positions (alat units)
         1           Fe  tau(   1) = (   0.1666663   0.1178509   0.0000000  )
         2           Fe  tau(   2) = (   0.0000000   0.0000000   0.2041376  )
         3           Fe  tau(   3) = (   0.4999989   0.3535526   0.0000000  )
         4           Fe  tau(   4) = (   0.3333326   0.2357017   0.2041376  )
         5           Fe  tau(   5) = (   0.1668369   0.1179664   0.4056137  )
         6           Fe  tau(   6) = (   0.3333948   0.9428477   0.6043333  )
         7           Fe  tau(   7) = (   0.5005257   0.3539409   0.4049512  )
         8           Fe  tau(   8) = (   0.3334307   0.2358017   0.6041204  )
         9           Fe  tau(   9) = (   0.2499989   0.3535526   0.0000000  )
        10           Fe  tau(  10) = (   0.4166663   0.1178509   0.0000000  )
        11           Fe  tau(  11) = (   0.0833326   0.2357017   0.2041376  )
        12           Fe  tau(  12) = (   0.2500000   0.0000000   0.2041376  )
        13           Fe  tau(  13) = (   0.2500303   0.3536979   0.4056039  )
        14           Fe  tau(  14) = (   0.4168191   0.1178637   0.4056158  )
        15           Fe  tau(  15) = (   0.0833358   0.2361564   0.6054962  )
        16           Fe  tau(  16) = (   0.2504323  -0.0001439   0.6055122  )
        17           Fe  tau(  17) = (   0.6666663   0.1178509   0.0000000  )
        18           Fe  tau(  18) = (   0.5000000   0.0000000   0.2041376  )
        19           Fe  tau(  19) = (   0.9999989   0.3535526   0.0000000  )
        20           Fe  tau(  20) = (   0.8333326   0.2357017   0.2041376  )
        21           Fe  tau(  21) = (   0.6669238   0.1176323   0.4045735  )
        22           Fe  tau(  22) = (   0.4999755  -0.0000906   0.6065746  )
        23           Fe  tau(  23) = (   1.0001041   0.3532419   0.4046086  )
        24           Fe  tau(  24) = (   0.8340634   0.2347098   0.5996506  )
        25           Fe  tau(  25) = (   0.7499989   0.3535526   0.0000000  )
        26           Fe  tau(  26) = (   0.9166663   0.1178509   0.0000000  )
        27           Fe  tau(  27) = (   0.5833326   0.2357017   0.2041376  )
        28           Fe  tau(  28) = (   0.7500000   0.0000000   0.2041376  )
        29           Fe  tau(  29) = (   0.7487792   0.3552564   0.4065778  )
        30           Fe  tau(  30) = (   0.9170874   0.1172970   0.4042016  )
        31           Fe  tau(  31) = (   0.5836685   0.2348251   0.6013713  )
        32           Fe  tau(  32) = (   1.0829121   0.9428579   0.6053617  )
        33           Fe  tau(  33) = (   0.3333315   0.5892543   0.0000000  )
        34           Fe  tau(  34) = (   0.1666652   0.4714034   0.2041376  )
        35           Fe  tau(  35) = (   0.6666640   0.8249560   0.0000000  )
        36           Fe  tau(  36) = (   0.4999978   0.7071052   0.2041376  )
        37           Fe  tau(  37) = (   0.3331818   0.5896118   0.4045503  )
        38           Fe  tau(  38) = (   1.1665462   0.4713975   0.6065742  )
        39           Fe  tau(  39) = (   0.6663808   0.8252023   0.4045885  )
        40           Fe  tau(  40) = (   0.4993463   0.7080862   0.5998126  )
        41           Fe  tau(  41) = (   0.4166640   0.8249560   0.0000000  )
        42           Fe  tau(  42) = (   0.5833315   0.5892543   0.0000000  )
        43           Fe  tau(  43) = (   0.2499978   0.7071052   0.2041376  )
        44           Fe  tau(  44) = (   0.4166652   0.4714034   0.2041376  )
        45           Fe  tau(  45) = (   0.4162782   0.8255467   0.4042228  )
        46           Fe  tau(  46) = (   0.5845005   0.5875838   0.4065537  )
        47           Fe  tau(  47) = (   1.2499125   0.7066993   0.6053694  )
        48           Fe  tau(  48) = (   0.4158374   0.4720513   0.6012683  )
        49           Fe  tau(  49) = (   0.8333315   0.5892543   0.0000000  )
        50           Fe  tau(  50) = (   0.6666652   0.4714034   0.2041376  )
        51           Fe  tau(  51) = (   1.1666640   0.8249560   0.0000000  )
        52           Fe  tau(  52) = (   0.9999978   0.7071052   0.2041376  )
        53           Fe  tau(  53) = (   0.8328112   0.5888980   0.4050680  )
        54           Fe  tau(  54) = (   0.6664112   0.4714982   0.6203360  )
        55           Fe  tau(  55) = (   1.1665105   0.8248441   0.4055370  )
        56           Fe  tau(  56) = (   0.9999676   0.7071090   0.6039197  )
        57           Fe  tau(  57) = (   0.9166640   0.8249560   0.0000000  )
        58           Fe  tau(  58) = (   1.0833315   0.5892543   0.0000000  )
        59           Fe  tau(  59) = (   0.7499978   0.7071052   0.2041376  )
        60           Fe  tau(  60) = (   0.9166652   0.4714034   0.2041376  )
        61           Fe  tau(  61) = (   0.9164861   0.8249639   0.4055659  )
        62           Fe  tau(  62) = (   1.0832489   0.5890867   0.4055794  )
        63           Fe  tau(  63) = (   0.7495789   0.7079861   0.6015385  )
        64           Fe  tau(  64) = (   0.9172476   0.4707251   0.6016470  )
        65           N   tau(  65) = (   0.6670943   0.4712780   0.8294560  )
        66           H   tau(  66) = (   0.6649302   0.5674919   0.8662418  )
        67           H   tau(  67) = (   0.5836884   0.4213385   0.8637980  )
        68           H   tau(  68) = (   0.7509205   0.4235701   0.8656821  )

     number of k points=    10  Methfessel-Paxton smearing, width (Ry)=  0.0100
                       cart. coord. in units 2pi/alat
        k(    1) = (   0.0000000   0.0000000   0.0000000), wk =   0.0625000
        k(    2) = (   0.0000000   0.2651656   0.0000000), wk =   0.1250000
        k(    3) = (   0.0000000  -0.5303313   0.0000000), wk =   0.0625000
        k(    4) = (   0.2500000  -0.0883878   0.0000000), wk =   0.1250000
        k(    5) = (   0.2500000   0.1767779   0.0000000), wk =   0.1250000
        k(    6) = (   0.2500000  -0.6187190   0.0000000), wk =   0.1250000
        k(    7) = (   0.2500000  -0.3535534   0.0000000), wk =   0.1250000
        k(    8) = (  -0.5000000   0.1767755   0.0000000), wk =   0.0625000
        k(    9) = (  -0.5000000   0.4419412   0.0000000), wk =   0.1250000
        k(   10) = (  -0.5000000  -0.3535558   0.0000000), wk =   0.0625000

     Check: negative core charge=   -0.000039

     Initial potential from superposition of free atoms

     starting charge 1031.97191, renormalised to 1032.00000

     negative rho (up, down):  2.373E-02 2.555E-03
     Starting wfcs are  839 randomized atomic wfcs
     Checking if some PAW data can be deallocated...

     Self-consistent Calculation

     iteration #  1     ecut=    60.00 Ry     beta= 0.20
     Davidson diagonalization with overlap
     c_bands:  2 eigenvalues not converged
     ethr =  1.00E-04,  avg # of iterations = 18.6

[...]
     atom:   62    charge:   13.4676    magn:    2.3491    constr:    0.0000
     atom:   63    charge:   13.4612    magn:    2.5197    constr:    0.0000
     atom:   64    charge:   13.4609    magn:    2.5219    constr:    0.0000
     atom:   65    charge:    1.3546    magn:   -0.0023    constr:    0.0000
     atom:   66    charge:    0.4339    magn:    0.0007    constr:    0.0000
     atom:   67    charge:    0.4296    magn:    0.0017    constr:    0.0000
     atom:   68    charge:    0.4327    magn:    0.0006    constr:    0.0000

     End of self-consistent calculation

 ------ SPIN UP ------------

[...]

 ------ SPIN DOWN ----------

[...]

          k = 0.2500-0.3536 0.0000 (128397 PWs)   bands (ev):

[...]

          k =-0.5000-0.3536 0.0000 (128560 PWs)   bands (ev):

   -87.6522 -87.5055 -87.4937 -87.4930 -87.4845 -87.4736 -87.4619 -87.4608
   -87.4606 -87.4562 -87.4553 -87.4528 -87.4487 -87.4442 -87.4441 -87.4433
   -87.4416 -87.4338 -87.4327 -87.4325 -87.4299 -87.4273 -87.4259 -87.4256
   -87.4237 -87.4218 -87.4204 -87.4202 -87.4171 -87.4062 -87.3997 -87.3996
   -87.3970 -87.3908 -87.3908 -87.3889 -87.3876 -87.3853 -87.3839 -87.3834
   -87.3828 -87.3807 -87.3695 -87.3694 -87.3673 -87.3639 -87.3625 -87.3623
   -87.3617 -87.3616 -87.3615 -87.3610 -87.3605 -87.3588 -87.3585 -87.3575
   -87.3518 -87.3420 -87.3413 -87.3405 -87.3397 -87.3393 -87.3390 -87.3385
   -53.9084 -53.8172 -53.7637 -53.7480 -53.7472 -53.7412 -53.7363 -53.7335
   -53.7319 -53.7290 -53.7278 -53.7270 -53.7261 -53.7231 -53.7226 -53.7226
   -53.7205 -53.7183 -53.7178 -53.7139 -53.7107 -53.7093 -53.7020 -53.7019
   -53.6993 -53.6924 -53.6873 -53.6846 -53.6831 -53.6807 -53.6802 -53.6757
   -53.6755 -53.6635 -53.6634 -53.6608 -53.6535 -53.6528 -53.6483 -53.6477
   -53.6474 -53.6458 -53.6443 -53.6416 -53.6415 -53.6390 -53.6369 -53.6364
   -53.6348 -53.6342 -53.6339 -53.6334 -53.6333 -53.6300 -53.6262 -53.6255
   -53.6251 -53.6244 -53.6228 -53.6217 -53.6208 -53.6207 -53.6202 -53.5912
   -53.5895 -53.5836 -53.5825 -53.5811 -53.5743 -53.5725 -53.5705 -53.5702
   -53.5643 -53.5624 -53.5598 -53.5502 -53.5488 -53.5439 -53.5420 -53.5394
   -53.5342 -53.5325 -53.5283 -53.5258 -53.5236 -53.5229 -53.5187 -53.5178
   -53.5174 -53.5166 -53.5155 -53.5147 -53.5123 -53.5122 -53.5042 -53.5021
   -53.4967 -53.4947 -53.4933 -53.4919 -53.4898 -53.4885 -53.4877 -53.4861
   -53.4842 -53.4838 -53.4797 -53.4780 -53.4757 -53.4748 -53.4743 -53.4742
   -53.4686 -53.4676 -53.4659 -53.4611 -53.4606 -53.4544 -53.4541 -53.4491
   -53.4478 -53.4476 -53.4472 -53.4457 -53.4441 -53.4437 -53.4432 -53.4357
   -53.4352 -53.4300 -53.4295 -53.4261 -53.4228 -53.4225 -53.4207 -53.4191
   -53.4185 -53.4173 -53.4156 -53.4154 -53.4153 -53.4133 -53.4132 -53.4130
   -53.4119 -53.4114 -53.4099 -53.4090 -53.4071 -53.4061 -53.4015 -53.4005
   -53.3996 -53.3972 -53.3962 -53.3952 -53.3945 -53.3942 -53.3941 -53.3936
   -53.3927 -53.3924 -53.3921 -53.3919 -53.3907 -53.3890 -53.3876 -53.3865
   -53.3862 -53.3847 -53.3839 -53.3812 -53.3811 -53.3805 -53.3801 -53.3795
   -53.3782 -53.3775 -53.3741 -53.3734 -53.3731 -53.3717 -53.3685 -53.3678
   -53.3667 -53.3647 -53.3642 -53.3630 -53.3617 -53.3579 -53.3569 -53.3538
   -21.3388 -11.5580 -11.5429  -9.4484  -9.4361  -8.8663  -8.8533  -8.2784
    -8.1430  -7.8559  -7.6012  -7.4588  -6.8551  -6.8471  -6.8459  -6.8290
    -6.4425  -6.4012  -6.0037  -6.0017  -6.0007  -5.9991  -5.9973  -5.9736
    -5.9072  -5.8817  -5.8678  -5.8668  -5.8643  -5.8405  -5.4444  -5.4428
    -5.4415  -5.4381  -5.4359  -5.4226  -5.2252  -5.2217  -4.9762  -4.9729
    -4.9432  -4.9376  -4.9333  -4.9191  -4.8803  -4.8753  -4.8364  -4.8360
    -4.8329  -4.8234  -4.6840  -4.6727  -4.6717  -4.6621  -4.6513  -4.6444
    -4.4048  -4.4012  -4.3887  -4.3847  -4.3845  -4.3784  -4.1673  -4.1648
    -4.1166  -4.1106  -4.0676  -4.0590  -3.9617  -3.9612  -3.8893  -3.8856
    -3.8806  -3.8726  -3.8680  -3.8609  -3.8547  -3.8537  -3.8457  -3.8414
    -3.7580  -3.7564  -3.7536  -3.7438  -3.7435  -3.7406  -3.7394  -3.7391
    -3.7316  -3.7300  -3.7292  -3.7266  -3.5260  -3.5194  -3.5095  -3.5078
    -3.3878  -3.3853  -3.3850  -3.3822  -3.3675  -3.3588  -3.3310  -3.3278
    -3.3223  -3.3195  -3.3173  -3.3086  -3.3053  -3.2975  -3.2914  -3.2891
    -3.2829  -3.2749  -3.2702  -3.2502  -3.2496  -3.2489  -3.2475  -3.2431
    -3.2379  -3.2357  -3.2345  -3.2315  -3.2175  -3.1995  -3.1957  -3.1801
    -3.1518  -3.1422  -3.1413  -3.1376  -3.1344  -3.1310  -3.1265  -3.1259
    -3.1239  -3.1224  -3.1160  -3.0991  -3.0661  -3.0500  -2.9267  -2.9206
    -2.8755  -2.8672  -2.8633  -2.8605  -2.8416  -2.8342  -2.8119  -2.8074
    -2.7986  -2.7962  -2.7290  -2.7044  -2.6928  -2.6854  -2.6807  -2.6743
    -2.6552  -2.6529  -2.6357  -2.6191  -2.6136  -2.6123  -2.5919  -2.5810
    -2.4459  -2.4346  -2.4333  -2.4256  -2.4213  -2.4110  -2.3462  -2.3443
    -2.3419  -2.3411  -2.3259  -2.2964  -2.2876  -2.2813  -2.2678  -2.2653
    -2.2334  -2.2280  -2.2220  -2.2183  -2.1924  -2.1921  -1.9669  -1.9305
    -1.9108  -1.8691  -1.8440  -1.8267  -1.7765  -1.7607  -1.5949  -1.5908
    -1.5751  -1.5567  -1.5312  -1.5102  -1.4657  -1.4318  -1.4257  -1.4198
    -1.4100  -1.3933  -1.3427  -1.3299  -1.3252  -1.3236  -1.2906  -1.2836
    -1.2833  -1.2696  -1.2243  -1.1955  -1.1892  -1.1687  -1.1610  -1.1288
[...]
    -0.7792  -0.7607  -0.7275  -0.7082  -0.6561  -0.6499  -0.6343  -0.6307
    -0.6298  -0.6274  -0.6245  -0.6173  -0.6158  -0.5953  -0.5933  -0.5848
    -0.5719  -0.5714  -0.5675  -0.5652  -0.5631  -0.5608  -0.5590  -0.5413
    -0.5349  -0.5203  -0.5025  -0.5019  -0.4874  -0.4833  -0.4788  -0.4776
    -0.4706  -0.4600  -0.4597  -0.4583  -0.4572  -0.4446  -0.4348  -0.4199
    -0.4169  -0.4099  -0.3960  -0.3951  -0.3946  -0.3901  -0.3878  -0.3856
    -0.3850  -0.3772  -0.3743  -0.3460  -0.3443  -0.3411  -0.2751  -0.2725
    -0.2621  -0.2533  -0.2375  -0.2341  -0.2304  -0.2280  -0.2014  -0.2012
    -0.1974  -0.1919  -0.1897  -0.1864  -0.1826  -0.1801  -0.1749  -0.1729
    -0.1721  -0.1703  -0.1684  -0.1677  -0.1652  -0.1581  -0.1366  -0.1289
    -0.1163  -0.1108  -0.1104  -0.1012  -0.0973  -0.0926  -0.0893  -0.0861
    -0.0854  -0.0800  -0.0100   0.0021   0.0046   0.0061   0.0150   0.0171
     0.0781   0.1136   0.2064   0.2264   0.4213   0.4283   0.4344   0.4376
     0.4603   0.4730   0.4752   0.4942   0.4968   0.5218   0.5230   0.5254
     0.5339   0.5430   0.6174

     the Fermi energy is    -2.3272 ev

!    total energy              =  -21096.07538339 Ry
     Harris-Foulkes estimate   =  -21096.07538275 Ry
     estimated scf accuracy    <          8.8E-11 Ry

     The total energy is the sum of the following terms:

     one-electron contribution = -744077.48914748 Ry
     hartree contribution      =  371946.28286674 Ry
     xc contribution           =   -2235.76484980 Ry
     ewald contribution        =  358145.72319440 Ry
     Dispersion Correction     =      -1.39629964 Ry
     one-center paw contrib.   =   -4873.43162395 Ry
     smearing contrib. (-TS)   =       0.00047634 Ry

     total magnetization       =   162.01 Bohr mag/cell
     absolute magnetization    =   168.54 Bohr mag/cell

     convergence has been achieved in  18 iterations

     negative rho (up, down):  2.354E-02 1.953E-02

     Forces acting on atoms (cartesian axes, Ry/au):

     atom    1 type  1   force =    -0.00007566   -0.00004966    0.00923212
     atom    2 type  1   force =    -0.00001201   -0.00003533   -0.01073734
     atom    3 type  1   force =     0.00058215    0.00040940    0.00940286
     atom    4 type  1   force =     0.00004050    0.00003397   -0.00848328
     atom    5 type  1   force =    -0.00002155   -0.00000981   -0.00004176
     atom    6 type  1   force =    -0.00000067   -0.00000056   -0.00014859
     atom    7 type  1   force =    -0.00008139   -0.00005240   -0.00010878
     atom    8 type  1   force =    -0.00000925   -0.00000742    0.00004829
     atom    9 type  1   force =     0.00001885   -0.00006203    0.00911605
     atom   10 type  1   force =    -0.00004193    0.00001286    0.00912428
     atom   11 type  1   force =     0.00009895   -0.00058208   -0.00979898
     atom   12 type  1   force =    -0.00051143    0.00029636   -0.00984192
     atom   13 type  1   force =     0.00009875   -0.00001030   -0.00002866
     atom   14 type  1   force =     0.00002154    0.00009961   -0.00003105
     atom   15 type  1   force =    -0.00005518   -0.00002307   -0.00007541
     atom   16 type  1   force =    -0.00004163   -0.00004543   -0.00007680
     atom   17 type  1   force =    -0.00038728    0.00029193    0.00995960
     atom   18 type  1   force =    -0.00004258    0.00005312   -0.00959312
     atom   19 type  1   force =    -0.00011694    0.00048624    0.00993396
     atom   20 type  1   force =    -0.00065800    0.00090134   -0.00777498
     atom   21 type  1   force =    -0.00003824    0.00005302    0.00000088
     atom   22 type  1   force =    -0.00001056    0.00000258   -0.00001601
     atom   23 type  1   force =    -0.00003828    0.00005150   -0.00000823
     atom   24 type  1   force =     0.00003629   -0.00004039    0.00011890
     atom   25 type  1   force =     0.00001848    0.00001666    0.00960214
     atom   26 type  1   force =    -0.00020132    0.00027608    0.00953442
     atom   27 type  1   force =     0.00041026   -0.00008104   -0.01045312
     atom   28 type  1   force =     0.00049587   -0.00032547   -0.00998819
     atom   29 type  1   force =     0.00001827   -0.00001158   -0.00000400
     atom   30 type  1   force =    -0.00005629    0.00007861   -0.00003630
     atom   31 type  1   force =     0.00003957    0.00005276    0.00005868
     atom   32 type  1   force =     0.00002273    0.00004199   -0.00007320
     atom   33 type  1   force =     0.00014483   -0.00046857    0.00995767
     atom   34 type  1   force =     0.00004828   -0.00004545   -0.00958886
     atom   35 type  1   force =     0.00040887   -0.00029077    0.00992868
     atom   36 type  1   force =     0.00064565   -0.00093342   -0.00773800
     atom   37 type  1   force =     0.00003597   -0.00005535    0.00000082
     atom   38 type  1   force =     0.00000049   -0.00001056   -0.00001254
     atom   39 type  1   force =     0.00003696   -0.00005615   -0.00000882
     atom   40 type  1   force =    -0.00003086    0.00005085    0.00009946
     atom   41 type  1   force =     0.00019430   -0.00027591    0.00954528
     atom   42 type  1   force =     0.00002201    0.00001484    0.00960322
     atom   43 type  1   force =    -0.00015820    0.00056310   -0.01002752
     atom   44 type  1   force =     0.00004286    0.00039447   -0.01047350
     atom   45 type  1   force =     0.00005346   -0.00007800   -0.00004651
     atom   46 type  1   force =    -0.00000133    0.00001685   -0.00000550
     atom   47 type  1   force =     0.00004743    0.00001167   -0.00007065
     atom   48 type  1   force =     0.00005813    0.00001662    0.00007289
     atom   49 type  1   force =    -0.00060339   -0.00042401    0.00941357
     atom   50 type  1   force =     0.00000226    0.00000629   -0.00750476
     atom   51 type  1   force =     0.00005141    0.00003999    0.00927490
     atom   52 type  1   force =    -0.00000456    0.00000380   -0.00866862
     atom   53 type  1   force =     0.00007450    0.00005875   -0.00010320
     atom   54 type  1   force =    -0.00001157   -0.00001586   -0.00011314
     atom   55 type  1   force =     0.00001565    0.00001382   -0.00003598
     atom   56 type  1   force =     0.00002018    0.00001626    0.00003091
     atom   57 type  1   force =     0.00007370   -0.00001793    0.00914081
     atom   58 type  1   force =     0.00000948    0.00007419    0.00914166
     atom   59 type  1   force =    -0.00042417   -0.00003057   -0.01035315
     atom   60 type  1   force =    -0.00017813   -0.00040967   -0.01034045
     atom   61 type  1   force =    -0.00002601   -0.00009032   -0.00003671
     atom   62 type  1   force =    -0.00009317    0.00000820   -0.00003746
     atom   63 type  1   force =    -0.00002441   -0.00001714    0.00006939
     atom   64 type  1   force =    -0.00003049   -0.00001414    0.00005573
     atom   65 type  2   force =     0.00003101    0.00004057    0.00003287
     atom   66 type  3   force =    -0.00002407    0.00005008   -0.00002903
     atom   67 type  3   force =     0.00002322   -0.00002322    0.00000436
     atom   68 type  3   force =     0.00006765    0.00005523   -0.00002273

     Total force =     0.000525     Total SCF correction =     0.000018

     bfgs converged in  23 scf cycles and  22 bfgs steps
     (criteria: energy <  7.3E-07 Ry, force <  3.9E-04 Ry/Bohr)

     End of BFGS Geometry Optimization

     Final energy   =  -21096.0753833922 Ry
Begin final coordinates

ATOMIC_POSITIONS (angstrom)
Fe       1.654912953   1.170200133   0.000000000    0   0   0
Fe       0.000000000   0.000000000   2.026984232    0   0   0
Fe       4.964738858   3.510600399   0.000000000    0   0   0
Fe       3.309825906   2.340400266   2.026984232    0   0   0
Fe       1.656487868   1.171216184   4.031041850
Fe       3.310281680   9.361868121   6.004648458
Fe       4.968843807   3.513450226   4.022236486
Fe       3.310639772   2.341045741   6.008432383
Fe       2.482363858   3.510600399   0.000000000    0   0   0
Fe       4.137287953   1.170200133   0.000000000    0   0   0
Fe       0.827450906   2.340400266   2.026984232    0   0   0
Fe       2.482375000   0.000000000   2.026984232    0   0   0
Fe       2.482147633   3.511730399   4.031282217
Fe       4.138393014   1.169670482   4.031379960
Fe       0.827716382   2.344315433   6.020283284
Fe       2.486254220  -0.001198667   6.020288060
Fe       6.619662953   1.170200133   0.000000000    0   0   0
Fe       4.964750000   0.000000000   2.026984232    0   0   0
Fe       9.929488858   3.510600399   0.000000000    0   0   0
Fe       8.274575906   2.340400266   2.026984232    0   0   0
Fe       6.622322557   1.166191270   4.019923117
Fe       4.964508347  -0.002175747   6.031234463
Fe       9.931529695   3.506438111   4.020565547
Fe       8.281635088   2.329594529   5.958402741
Fe       7.447113858   3.510600399   0.000000000    0   0   0
Fe       9.102037953   1.170200133   0.000000000    0   0   0
Fe       5.792200906   2.340400266   2.026984232    0   0   0
Fe       7.447125000   0.000000000   2.026984232    0   0   0
Fe       7.435542379   3.525665067   4.035057422
Fe       9.106225499   1.164289410   4.015595272
Fe       5.794194930   2.329833298   5.975547944
Fe      10.753011000   9.360682677   6.018117208
Fe       3.309814764   5.851000664   0.000000000    0   0   0
Fe       1.654901811   4.680800531   2.026984232    0   0   0
Fe       6.619640670   8.191400930   0.000000000    0   0   0
Fe       4.964727717   7.021200797   2.026984232    0   0   0
Fe       3.306909502   5.855077978   4.019786885
Fe      11.582574011   4.680967557   6.031238554
Fe       6.616287395   8.194857233   4.020452501
Fe       4.957545816   7.030873499   5.959838641
Fe       4.137265670   8.191400930   0.000000000    0   0   0
Fe       5.792189764   5.851000664   0.000000000    0   0   0
Fe       2.482352717   7.021200797   2.026984232    0   0   0
Fe       4.137276811   4.680800531   2.026984232    0   0   0
Fe       4.133148564   8.197320089   4.015824272
Fe       5.802428149   5.835307730   4.034808848
Fe      12.410030605   7.017681384   6.018097502
Fe       4.127428354   4.686184486   5.974613695
Fe       8.274564764   5.851000664   0.000000000    0   0   0
Fe       6.619651811   4.680800531   2.026984232    0   0   0
Fe      11.584390670   8.191400930   0.000000000    0   0   0
Fe       9.929477717   7.021200797   2.026984232    0   0   0
Fe       8.269920574   5.847571375   4.023258754
Fe       6.616852291   4.680690575   6.136451685
Fe      11.582681808   8.190074449   4.029830725
Fe       9.928600537   7.020495046   6.006075599
Fe       9.102015670   8.191400930   0.000000000    0   0   0
Fe      10.756939764   5.851000664   0.000000000    0   0   0
Fe       7.447102717   7.021200797   2.026984232    0   0   0
Fe       9.102026811   4.680800531   2.026984232    0   0   0
Fe       9.100187560   8.191233250   4.030659931
Fe      10.756125161   5.849178741   4.030755601
Fe       7.443275626   7.029906120   5.977468636
Fe       9.108438898   4.673867844   5.978509219
N        6.626182557   4.682118772   8.216007437
H        6.601246773   5.643478435   8.564735442
H        5.795381180   4.180869869   8.542510721
H        7.465323145   4.209424104   8.560797263
End final coordinates

     Writing output data file Fe_NH3_paper_480c_ESM_p25.save/

     General routines

     Parallel routines

   This run was terminated on:   5:31:37  12Jun2022

   JOB DONE.