     Program PWSCF v.6.7MaX starts on  8Jul2022 at 17:36:22

     K-points division:     npool     =       8
     R & G space division:  proc/nbgrp/npool/nimage =      32
     Waiting for input...
     Reading input from standard input
Warning: card &CELL ignored
Warning: card / ignored

     Current dimensions of program PWSCF are:
     Max number of different atomic species (ntypx) = 10
     Max number of k-points (npk) =  40000
     Max angular momentum in pseudopotentials (lmaxx) =  3
     file Fe.pbe-spn-kjpaw_psl.0.2.1.UPF: wavefunction(s)  3D renormalized

     IMPORTANT: XC functional enforced from input :
     Exchange-correlation= PBE
                           (   1   4   3   4   0   0   0)
     Any further DFT definition will be discarded
     Please, verify this is what you really want

     Parameters for Dispersion (Grimme-D2) Correction:
       atom      VdW radius       C_6

        Fe         2.952        374.666
        N          2.640         42.670
        H          1.892          4.857

     bravais-lattice index     =            0
     lattice parameter (alat)  =      18.7640  a.u.
     unit-cell volume          =   16360.3161 (a.u.)^3
     number of atoms/cell      =           68
     number of atomic types    =            3
     number of electrons       =      1032.00
     number of Kohn-Sham states=          619
     kinetic-energy cutoff     =      60.0000  Ry
     charge density cutoff     =     480.0000  Ry
     scf convergence threshold =      1.0E-08
     mixing beta               =       0.2000
     number of iterations used =           10  local-TF  mixing
     energy convergence thresh.=      7.3E-07
     force convergence thresh. =      3.9E-04
     Exchange-correlation= PBE
                           (   1   4   3   4   0   0   0)
     nstep                     =           50

     Effective Screening Medium Method
     Boundary Conditions: Metal-Slab-Metal
     field strength                   =     0.00 Ry/a.u.
     grid points for fit at edges     =        4

     celldm(1)=  18.764036  celldm(2)=   0.000000  celldm(3)=   0.000000
     celldm(4)=   0.000000  celldm(5)=   0.000000  celldm(6)=   0.000000

     crystal axes: (cart. coord. in units of alat)
               a(1) = (   1.000000   0.000000   0.000000 )
               a(2) = (   0.333330   0.942807   0.000000 )
               a(3) = (   0.000000   0.000000   2.626577 )

     reciprocal axes: (cart. coord. in units 2 pi/alat)
               b(1) = (  1.000000 -0.353551  0.000000 )
               b(2) = (  0.000000  1.060663  0.000000 )
               b(3) = (  0.000000  0.000000  0.380724 )

     PseudoPot. # 1 for Fe read from file:
     ../../SSSP/Fe.pbe-spn-kjpaw_psl.0.2.1.UPF
     MD5 check sum: e86618425769142926afa95317d90200
     Pseudo is Projector augmented-wave + core cor, Zval = 16.0
     Generated using "atomic" code by A. Dal Corso  v.5.0.99 svn rev. 10869
     Shape of augmentation charge: PSQ
     Using radial grid of 1191 points,  6 beta functions with:
                l(1) =   0
                l(2) =   0
                l(3) =   1
                l(4) =   1
                l(5) =   2
                l(6) =   2
     Q(r) pseudized with 0 coefficients

     PseudoPot. # 2 for N  read from file:
     ../../SSSP/N.pbe-n-radius_5.UPF
     MD5 check sum: 16739722b17309cd8fe442a2ace49922
     Pseudo is Ultrasoft + core correction, Zval =  5.0
     Generated using "atomic" code by A. Dal Corso  v.5.1
     Using radial grid of 1085 points,  4 beta functions with:
                l(1) =   0
                l(2) =   0
                l(3) =   1
                l(4) =   1
     Q(r) pseudized with 0 coefficients

     PseudoPot. # 3 for H  read from file:
     ../../SSSP/H.pbe-rrkjus_psl.1.0.0.UPF
     MD5 check sum: f52b6d4d1c606e5624b1dc7b2218f220
     Pseudo is Ultrasoft, Zval =  1.0
     Generated using "atomic" code by A. Dal Corso  v.5.1
     Using radial grid of  929 points,  2 beta functions with:
                l(1) =   0
                l(2) =   0
     Q(r) pseudized with 0 coefficients

     atomic species   valence    mass     pseudopotential
        Fe            16.00    55.84500     Fe( 1.00)
        N              5.00    14.00700     N ( 1.00)
        H              1.00     1.00800     H ( 1.00)

     Starting magnetic structure
     atomic species   magnetization
        Fe           0.100
        N            0.100
        H            0.100

     No symmetry found

   Cartesian axes

     site n.     atom                  positions (alat units)
         1           Fe  tau(   1) = (   0.1666663   0.1178509   0.0000000  )
         2           Fe  tau(   2) = (   0.0000000   0.0000000   0.2041376  )
         3           Fe  tau(   3) = (   0.4999989   0.3535526   0.0000000  )
         4           Fe  tau(   4) = (   0.3333326   0.2357017   0.2041376  )
         5           Fe  tau(   5) = (   0.1668249   0.1179532   0.4059662  )
         6           Fe  tau(   6) = (   0.3333785   0.9428338   0.6047282  )
         7           Fe  tau(   7) = (   0.5004123   0.3538396   0.4050795  )
         8           Fe  tau(   8) = (   0.3334145   0.2357667   0.6051093  )
         9           Fe  tau(   9) = (   0.2499989   0.3535526   0.0000000  )
        10           Fe  tau(  10) = (   0.4166663   0.1178509   0.0000000  )
        11           Fe  tau(  11) = (   0.0833326   0.2357017   0.2041376  )
        12           Fe  tau(  12) = (   0.2500000   0.0000000   0.2041376  )
        13           Fe  tau(  13) = (   0.2499771   0.3536664   0.4059905  )
        14           Fe  tau(  14) = (   0.4167776   0.1177975   0.4060003  )
        15           Fe  tau(  15) = (   0.0833593   0.2360960   0.6063028  )
        16           Fe  tau(  16) = (   0.2503907  -0.0001207   0.6063032  )
        17           Fe  tau(  17) = (   0.6666663   0.1178509   0.0000000  )
        18           Fe  tau(  18) = (   0.5000000   0.0000000   0.2041376  )
        19           Fe  tau(  19) = (   0.9999989   0.3535526   0.0000000  )
        20           Fe  tau(  20) = (   0.8333326   0.2357017   0.2041376  )
        21           Fe  tau(  21) = (   0.6669341   0.1174471   0.4048465  )
        22           Fe  tau(  22) = (   0.4999757  -0.0002191   0.6074057  )
        23           Fe  tau(  23) = (   1.0002044   0.3531334   0.4049112  )
        24           Fe  tau(  24) = (   0.8340435   0.2346135   0.6000708  )
        25           Fe  tau(  25) = (   0.7499989   0.3535526   0.0000000  )
        26           Fe  tau(  26) = (   0.9166663   0.1178509   0.0000000  )
        27           Fe  tau(  27) = (   0.5833326   0.2357017   0.2041376  )
        28           Fe  tau(  28) = (   0.7500000   0.0000000   0.2041376  )
        29           Fe  tau(  29) = (   0.7488335   0.3550697   0.4063707  )
        30           Fe  tau(  30) = (   0.9170880   0.1172556   0.4044106  )
        31           Fe  tau(  31) = (   0.5835334   0.2346375   0.6017975  )
        32           Fe  tau(  32) = (   1.0829358   0.9427144   0.6060846  )
        33           Fe  tau(  33) = (   0.3333315   0.5892543   0.0000000  )
        34           Fe  tau(  34) = (   0.1666652   0.4714034   0.2041376  )
        35           Fe  tau(  35) = (   0.6666640   0.8249560   0.0000000  )
        36           Fe  tau(  36) = (   0.4999978   0.7071052   0.2041376  )
        37           Fe  tau(  37) = (   0.3330389   0.5896649   0.4048328  )
        38           Fe  tau(  38) = (   1.1664811   0.4714203   0.6074061  )
        39           Fe  tau(  39) = (   0.6663263   0.8253041   0.4048998  )
        40           Fe  tau(  40) = (   0.4992745   0.7080793   0.6002154  )
        41           Fe  tau(  41) = (   0.4166640   0.8249560   0.0000000  )
        42           Fe  tau(  42) = (   0.5833315   0.5892543   0.0000000  )
        43           Fe  tau(  43) = (   0.2499978   0.7071052   0.2041376  )
        44           Fe  tau(  44) = (   0.4166652   0.4714034   0.2041376  )
        45           Fe  tau(  45) = (   0.4162494   0.8255522   0.4044337  )
        46           Fe  tau(  46) = (   0.5843626   0.5876739   0.4063456  )
        47           Fe  tau(  47) = (   1.2498143   0.7067507   0.6060826  )
        48           Fe  tau(  48) = (   0.4156733   0.4719457   0.6017034  )
        49           Fe  tau(  49) = (   0.8333315   0.5892543   0.0000000  )
        50           Fe  tau(  50) = (   0.6666652   0.4714034   0.2041376  )
        51           Fe  tau(  51) = (   1.1666640   0.8249560   0.0000000  )
        52           Fe  tau(  52) = (   0.9999978   0.7071052   0.2041376  )
        53           Fe  tau(  53) = (   0.8328637   0.5889089   0.4051824  )
        54           Fe  tau(  54) = (   0.6663832   0.4713924   0.6180021  )
        55           Fe  tau(  55) = (   1.1664919   0.8248224   0.4058443  )
        56           Fe  tau(  56) = (   0.9999094   0.7070341   0.6048719  )
        57           Fe  tau(  57) = (   0.9166640   0.8249560   0.0000000  )
        58           Fe  tau(  58) = (   1.0833315   0.5892543   0.0000000  )
        59           Fe  tau(  59) = (   0.7499978   0.7071052   0.2041376  )
        60           Fe  tau(  60) = (   0.9166652   0.4714034   0.2041376  )
        61           Fe  tau(  61) = (   0.9164799   0.8249391   0.4059278  )
        62           Fe  tau(  62) = (   1.0832494   0.5890708   0.4059374  )
        63           Fe  tau(  63) = (   0.7496123   0.7079819   0.6019909  )
        64           Fe  tau(  64) = (   0.9173109   0.4707053   0.6020957  )
        65           N   tau(  65) = (   0.6673229   0.4715362   0.8274342  )
        66           H   tau(  66) = (   0.6648116   0.5683547   0.8625546  )
        67           H   tau(  67) = (   0.5836529   0.4210554   0.8603163  )
        68           H   tau(  68) = (   0.7518327   0.4239311   0.8621579  )

     number of k points=    10  Methfessel-Paxton smearing, width (Ry)=  0.0100
                       cart. coord. in units 2pi/alat
        k(    1) = (   0.0000000   0.0000000   0.0000000), wk =   0.0625000
        k(    2) = (   0.0000000   0.2651656   0.0000000), wk =   0.1250000
        k(    3) = (   0.0000000  -0.5303313   0.0000000), wk =   0.0625000
        k(    4) = (   0.2500000  -0.0883878   0.0000000), wk =   0.1250000
        k(    5) = (   0.2500000   0.1767779   0.0000000), wk =   0.1250000
        k(    6) = (   0.2500000  -0.6187190   0.0000000), wk =   0.1250000
        k(    7) = (   0.2500000  -0.3535534   0.0000000), wk =   0.1250000
        k(    8) = (  -0.5000000   0.1767755   0.0000000), wk =   0.0625000
        k(    9) = (  -0.5000000   0.4419412   0.0000000), wk =   0.1250000
        k(   10) = (  -0.5000000  -0.3535558   0.0000000), wk =   0.0625000

     Check: negative core charge=   -0.000039
     Generating pointlists ...
     new r_m :   0.0864 (alat units)  1.6211 (a.u.) for type    1
     new r_m :   0.0425 (alat units)  0.7974 (a.u.) for type    2
     new r_m :   0.0425 (alat units)  0.7974 (a.u.) for type    3

     Initial potential from superposition of free atoms

     starting charge 1031.97191, renormalised to 1032.00000

     negative rho (up, down):  1.308E-02 1.070E-02
[...]
   -55.2525 -55.2504 -55.2487 -55.2464 -55.2463 -55.2433 -55.2427 -55.2425
   -55.2414 -55.2390 -55.2367 -55.2346 -55.2321 -55.2304 -55.2230 -55.2221
   -55.2207 -55.2139 -55.2076 -55.2052 -55.2016 -55.2007 -55.1993 -55.1939
   -55.1938 -55.1843 -55.1837 -55.1802 -55.1737 -55.1724 -55.1676 -55.1668
   -55.1667 -55.1653 -55.1635 -55.1607 -55.1600 -55.1561 -55.1558 -55.1553
   -55.1539 -55.1533 -55.1520 -55.1519 -55.1507 -55.1478 -55.1453 -55.1429
   -55.1427 -55.1417 -55.1412 -55.1391 -55.1384 -55.1382 -55.1380 -55.1101
   -55.1080 -55.1026 -55.1012 -55.0998 -55.0925 -55.0907 -55.0895 -55.0894
   -55.0827 -55.0812 -55.0797 -55.0691 -55.0676 -55.0627 -55.0614 -55.0588
   -55.0529 -55.0520 -55.0469 -55.0450 -55.0447 -55.0422 -55.0382 -55.0374
   -55.0372 -55.0360 -55.0351 -55.0343 -55.0308 -55.0307 -55.0235 -55.0214
   -55.0147 -55.0134 -55.0128 -55.0114 -55.0078 -55.0068 -55.0051 -55.0049
   -55.0017 -55.0015 -54.9976 -54.9969 -54.9937 -54.9936 -54.9927 -54.9924
   -54.9876 -54.9857 -54.9845 -54.9799 -54.9791 -54.9743 -54.9724 -54.9674
   -54.9674 -54.9668 -54.9661 -54.9648 -54.9634 -54.9632 -54.9622 -54.9549
   -54.9537 -54.9489 -54.9471 -54.9453 -54.9417 -54.9408 -54.9395 -54.9366
   -54.9365 -54.9358 -54.9336 -54.9334 -54.9331 -54.9314 -54.9307 -54.9302
   -54.9299 -54.9291 -54.9269 -54.9267 -54.9245 -54.9240 -54.9189 -54.9185
   -54.9177 -54.9144 -54.9141 -54.9135 -54.9132 -54.9130 -54.9124 -54.9111
   -54.9107 -54.9093 -54.9090 -54.9077 -54.9075 -54.9070 -54.9054 -54.9050
   -54.9045 -54.9023 -54.9007 -54.8990 -54.8986 -54.8979 -54.8977 -54.8974
   -54.8963 -54.8951 -54.8924 -54.8908 -54.8908 -54.8889 -54.8860 -54.8857
   -54.8845 -54.8830 -54.8821 -54.8819 -54.8807 -54.8763 -54.8749 -54.8727
   -22.7678 -12.9350 -12.9216 -10.9675 -10.9568 -10.3853 -10.3737  -9.7852
    -9.6605  -9.3595  -9.1189  -8.9694  -8.3761  -8.3675  -8.3663  -8.3489
    -7.9595  -7.9182  -7.5241  -7.5207  -7.5205  -7.5193  -7.5163  -7.4915
    -7.4247  -7.4005  -7.3895  -7.3870  -7.3855  -7.3599  -6.9634  -6.9626
    -6.9613  -6.9582  -6.9558  -6.9421  -6.7434  -6.7403  -6.4955  -6.4925
    -6.4628  -6.4569  -6.4518  -6.4385  -6.4003  -6.3957  -6.3562  -6.3541
    -6.3535  -6.3430  -6.2063  -6.1942  -6.1939  -6.1844  -6.1701  -6.1671
    -5.9266  -5.9235  -5.9082  -5.9049  -5.9022  -5.8987  -5.6853  -5.6827
    -5.6355  -5.6286  -5.5882  -5.5787  -5.4818  -5.4807  -5.4111  -5.4071
    -5.4019  -5.3933  -5.3867  -5.3820  -5.3766  -5.3758  -5.3658  -5.3636
    -5.2773  -5.2773  -5.2746  -5.2645  -5.2637  -5.2623  -5.2594  -5.2588
    -5.2520  -5.2491  -5.2489  -5.2461  -5.0457  -5.0380  -5.0301  -5.0269
    -4.9078  -4.9060  -4.9055  -4.9026  -4.8870  -4.8768  -4.8548  -4.8492
    -4.8434  -4.8414  -4.8360  -4.8287  -4.8254  -4.8233  -4.8124  -4.8108
    -4.8039  -4.7941  -4.7852  -4.7734  -4.7714  -4.7680  -4.7666  -4.7628
    -4.7570  -4.7557  -4.7543  -4.7494  -4.7360  -4.7164  -4.7126  -4.6955
    -4.6711  -4.6616  -4.6603  -4.6570  -4.6549  -4.6506  -4.6462  -4.6439
    -4.6426  -4.6422  -4.6348  -4.6171  -4.5835  -4.5675  -4.4449  -4.4385
    -4.3949  -4.3843  -4.3810  -4.3799  -4.3544  -4.3501  -4.3299  -4.3253
    -4.3168  -4.3137  -4.2388  -4.2180  -4.2114  -4.2045  -4.1992  -4.1971
    -4.1809  -4.1753  -4.1535  -4.1395  -4.1335  -4.1297  -4.0999  -4.0974
    -3.9641  -3.9542  -3.9475  -3.9329  -3.9307  -3.9242  -3.8660  -3.8644
    -3.8624  -3.8572  -3.8440  -3.8260  -3.8189  -3.8180  -3.8024  -3.7791
    -3.7533  -3.7469  -3.7396  -3.7349  -3.7101  -3.7056  -3.4853  -3.4438
    -3.4306  -3.3850  -3.3616  -3.3422  -3.2937  -3.2804  -3.1154  -3.1107
    -3.0929  -3.0781  -3.0490  -3.0284  -2.9853  -2.9479  -2.9450  -2.9410
    -2.9267  -2.9127  -2.8614  -2.8495  -2.8425  -2.8387  -2.8057  -2.8022
    -2.8011  -2.7891  -2.7474  -2.7108  -2.7077  -2.6846  -2.6775  -2.6468
[...]
    -2.2982  -2.2781  -2.2462  -2.2259  -2.1747  -2.1698  -2.1526  -2.1482
    -2.1465  -2.1439  -2.1413  -2.1350  -2.1327  -2.1144  -2.1099  -2.1031
    -2.0895  -2.0872  -2.0841  -2.0829  -2.0823  -2.0777  -2.0760  -2.0598
    -2.0545  -2.0356  -2.0194  -2.0188  -2.0041  -2.0006  -1.9948  -1.9938
    -1.9847  -1.9785  -1.9774  -1.9751  -1.9749  -1.9606  -1.9526  -1.9371
    -1.9347  -1.9266  -1.9143  -1.9116  -1.9113  -1.9081  -1.9036  -1.9028
    -1.9021  -1.8948  -1.8915  -1.8593  -1.8580  -1.8507  -1.7909  -1.7897
    -1.7812  -1.7718  -1.7498  -1.7448  -1.7442  -1.7433  -1.7200  -1.7187
    -1.7145  -1.7095  -1.7078  -1.7050  -1.6984  -1.6980  -1.6923  -1.6904
    -1.6896  -1.6879  -1.6855  -1.6822  -1.6794  -1.6753  -1.6406  -1.6379
    -1.6338  -1.6281  -1.6277  -1.6178  -1.6148  -1.6107  -1.6040  -1.6033
    -1.5992  -1.5972  -1.5273  -1.5141  -1.5119  -1.5114  -1.5024  -1.5002
    -1.3720  -1.3622  -1.3110  -1.2906  -1.0956  -1.0886  -1.0836  -1.0806
    -1.0446  -1.0365  -1.0250  -1.0190  -0.9951  -0.9935  -0.9914  -0.9852
    -0.9697  -0.9225  -0.8874

     the Fermi energy is    -3.8438 ev

!    total energy              =  -21096.06706010 Ry
     estimated scf accuracy    <          8.9E-11 Ry
     smearing contrib. (-TS)   =       0.00027343 Ry
     internal energy E=F+TS    =  -21096.06733353 Ry

     The total energy is F=E-TS. E is the sum of the following terms:
     one-electron contribution = -744422.42345634 Ry
     hartree contribution      =  372061.23913388 Ry
     xc contribution           =   -2235.77022111 Ry
     ewald contribution        =  358375.71674689 Ry
     Dispersion Correction     =      -1.39637640 Ry
     one-center paw contrib.   =   -4873.43316045 Ry

     total magnetization       =   161.86 Bohr mag/cell
     absolute magnetization    =   168.33 Bohr mag/cell

     convergence has been achieved in  14 iterations

     negative rho (up, down):  1.136E-02 1.552E-02

     Forces acting on atoms (cartesian axes, Ry/au):

     atom    1 type  1   force =    -0.00005763   -0.00003320    0.00939410
     atom    2 type  1   force =    -0.00001821   -0.00003294   -0.01101913
     atom    3 type  1   force =     0.00057841    0.00040122    0.00946670
     atom    4 type  1   force =     0.00012778    0.00009121   -0.00887310
     atom    5 type  1   force =     0.00000778    0.00000723    0.00002374
     atom    6 type  1   force =    -0.00000349   -0.00000170    0.00004279
     atom    7 type  1   force =     0.00004460    0.00003081    0.00006302
     atom    8 type  1   force =     0.00000901    0.00000462    0.00000067
     atom    9 type  1   force =    -0.00002909   -0.00002516    0.00930975
     atom   10 type  1   force =    -0.00002233   -0.00003866    0.00932124
     atom   11 type  1   force =     0.00006861   -0.00047416   -0.01002312
     atom   12 type  1   force =    -0.00042212    0.00022983   -0.01006383
     atom   13 type  1   force =    -0.00004168   -0.00000426    0.00002935
     atom   14 type  1   force =    -0.00001875   -0.00004019    0.00002740
     atom   15 type  1   force =     0.00002109    0.00002016    0.00002200
     atom   16 type  1   force =     0.00002576    0.00001175    0.00002093
     atom   17 type  1   force =    -0.00036037    0.00021239    0.01009446
     atom   18 type  1   force =    -0.00003774    0.00005653   -0.00997432
     atom   19 type  1   force =    -0.00004727    0.00043197    0.01006990
     atom   20 type  1   force =    -0.00085060    0.00116052   -0.00768667
     atom   21 type  1   force =     0.00000814   -0.00001034   -0.00000354
     atom   22 type  1   force =     0.00000314   -0.00000263    0.00002340
     atom   23 type  1   force =     0.00000679   -0.00000793    0.00000213
     atom   24 type  1   force =    -0.00001733    0.00001901   -0.00010274
     atom   25 type  1   force =    -0.00001926    0.00005817    0.00963425
     atom   26 type  1   force =    -0.00018637    0.00026559    0.00954450
     atom   27 type  1   force =     0.00034544    0.00010400   -0.01061007
     atom   28 type  1   force =     0.00041342   -0.00025505   -0.01014917
     atom   29 type  1   force =    -0.00001434    0.00001628    0.00003168
     atom   30 type  1   force =     0.00002779   -0.00003353    0.00000179
     atom   31 type  1   force =     0.00000408   -0.00000004   -0.00004933
     atom   32 type  1   force =    -0.00001989   -0.00000551    0.00002229
     atom   33 type  1   force =     0.00007805   -0.00041875    0.01009606
     atom   34 type  1   force =     0.00004491   -0.00003892   -0.00997344
     atom   35 type  1   force =     0.00038036   -0.00020433    0.01006494
     atom   36 type  1   force =     0.00082302   -0.00119756   -0.00766509
     atom   37 type  1   force =    -0.00000773    0.00001052   -0.00000340
     atom   38 type  1   force =     0.00000060    0.00000140    0.00002543
     atom   39 type  1   force =    -0.00000676    0.00000854    0.00000134
     atom   40 type  1   force =     0.00001025   -0.00002140   -0.00010238
     atom   41 type  1   force =     0.00019030   -0.00026401    0.00955789
     atom   42 type  1   force =     0.00004813   -0.00003361    0.00963376
     atom   43 type  1   force =    -0.00011662    0.00046513   -0.01018918
     atom   44 type  1   force =     0.00019661    0.00027633   -0.01063166
     atom   45 type  1   force =    -0.00002432    0.00003882    0.00000437
     atom   46 type  1   force =     0.00001001   -0.00001893    0.00003300
     atom   47 type  1   force =    -0.00001020   -0.00001859    0.00001935
     atom   48 type  1   force =     0.00000094    0.00000393   -0.00005123
     atom   49 type  1   force =    -0.00058997   -0.00041382    0.00950596
     atom   50 type  1   force =     0.00000395    0.00000958   -0.00711590
     atom   51 type  1   force =     0.00002674    0.00003005    0.00940939
     atom   52 type  1   force =    -0.00008793   -0.00005564   -0.00901074
     atom   53 type  1   force =    -0.00004338   -0.00002950    0.00006103
     atom   54 type  1   force =     0.00000155    0.00000402    0.00004643
     atom   55 type  1   force =    -0.00000592   -0.00000288    0.00001894
     atom   56 type  1   force =    -0.00000815   -0.00000861    0.00000854
     atom   57 type  1   force =     0.00004573    0.00002667    0.00932609
     atom   58 type  1   force =     0.00004122    0.00003639    0.00932977
     atom   59 type  1   force =    -0.00035194   -0.00019233   -0.01056426
     atom   60 type  1   force =    -0.00030490   -0.00028313   -0.01054834
     atom   61 type  1   force =     0.00002076    0.00003431    0.00003416
     atom   62 type  1   force =     0.00004192    0.00000683    0.00003551
     atom   63 type  1   force =    -0.00000682   -0.00001359   -0.00004425
     atom   64 type  1   force =    -0.00001439   -0.00000073   -0.00004298
     atom   65 type  2   force =     0.00002933    0.00003754    0.00000376
     atom   66 type  3   force =    -0.00001533    0.00002027   -0.00001470
     atom   67 type  3   force =     0.00003327   -0.00001029   -0.00000447
     atom   68 type  3   force =     0.00004129    0.00006030   -0.00000480

     Total force =     0.000291     Total SCF correction =     0.000036
     SCF correction compared to forces is large: reduce conv_thr to get better values
     Energy error            =      2.5E-07
     Gradient error          =      1.0E-04

     bfgs converged in  24 scf cycles and  23 bfgs steps
     (criteria: energy <  7.3E-07 Ry, force <  3.9E-04 Ry/Bohr)

     End of BFGS Geometry Optimization

     Final energy   =  -21096.0670600996 Ry

     File ./Fe_NH3_paper_480c_ESM_std.bfgs deleted, as requested
Begin final coordinates

ATOMIC_POSITIONS (angstrom)
Fe            1.6549129530        1.1702001330        0.0000000000    0   0   0
Fe            0.0000000000        0.0000000000        2.0269842320    0   0   0
Fe            4.9647388580        3.5106003990        0.0000000000    0   0   0
Fe            3.3098259060        2.3404002660        2.0269842320    0   0   0
Fe            1.6562884735        1.1710965620        4.0275957267
Fe            3.3102661010        9.3618721436        5.9991208952
Fe            4.9694415508        3.5139052333        4.0211847270
Fe            3.3101528924        2.3407254529        6.0011617457
Fe            2.4823638580        3.5106003990        0.0000000000    0   0   0
Fe            4.1372879530        1.1702001330        0.0000000000    0   0   0
Fe            0.8274509060        2.3404002660        2.0269842320    0   0   0
Fe            2.4823750000        0.0000000000        2.0269842320    0   0   0
Fe            2.4826333860        3.5118790682        4.0282441127
Fe            4.1386604552        1.1701140790        4.0283513331
Fe            0.8271803450        2.3445843682        6.0128952471
Fe            2.4862975836       -0.0017827086        6.0129775828
Fe            6.6196629530        1.1702001330        0.0000000000    0   0   0
Fe            4.9647500000        0.0000000000        2.0269842320    0   0   0
Fe            9.9294888580        3.5106003990        0.0000000000    0   0   0
Fe            8.2745759060        2.3404002660        2.0269842320    0   0   0
Fe            6.6218806460        1.1672976937        4.0176029068
Fe            4.9642682875       -0.0018407878        6.0243855102
Fe            9.9307722778        3.5072621078        4.0179420209
Fe            8.2815388087        2.3300298297        5.9551863614
Fe            7.4471138580        3.5106003990        0.0000000000    0   0   0
Fe            9.1020379530        1.1702001330        0.0000000000    0   0   0
Fe            5.7922009060        2.3404002660        2.0269842320    0   0   0
Fe            7.4471250000        0.0000000000        2.0269842320    0   0   0
Fe            7.4347485632        3.5269655965        4.0363553134
Fe            9.1056732113        1.1650172490        4.0131805005
Fe            5.7948693962        2.3308434498        5.9724966981
Fe           10.7527770805        9.3616232904        6.0114468725
Fe            3.3098147640        5.8510006640        0.0000000000    0   0   0
Fe            1.6549018110        4.6808005310        2.0269842320    0   0   0
Fe            6.6196406700        8.1914009300        0.0000000000    0   0   0
Fe            4.9647277170        7.0212007970        2.0269842320    0   0   0
Fe            3.3077768537        5.8542992416        4.0174719067
Fe           11.5827519768        4.6806943738        6.0243701564
Fe            6.6168068846        8.1938939448        4.0178325035
Fe            4.9577871724        7.0307612761        5.9563589152
Fe            4.1372656700        8.1914009300        0.0000000000    0   0   0
Fe            5.7921897640        5.8510006640        0.0000000000    0   0   0
Fe            2.4823527170        7.0212007970        2.0269842320    0   0   0
Fe            4.1372768110        4.6808005310        2.0269842320    0   0   0
Fe            4.1336335040        8.1965850163        4.0133320818
Fe            5.8034257747        5.8340812837        4.0361366869
Fe           12.4107690111        7.0172123498        6.0115188808
Fe            4.1286321462        4.6865350085        5.9716246439
Fe            8.2745647640        5.8510006640        0.0000000000    0   0   0
Fe            6.6196518110        4.6808005310        2.0269842320    0   0   0
Fe           11.5843906700        8.1914009300        0.0000000000    0   0   0
Fe            9.9294777170        7.0212007970        2.0269842320    0   0   0
Fe            8.2694591458        5.8472942591        4.0220364995
Fe            6.6170204342        4.6805848461        6.1533734435
Fe           11.5828697171        8.1902244542        4.0267561888
Fe            9.9292545465        7.0210352894        5.9988373385
Fe            9.1020156700        8.1914009300        0.0000000000    0   0   0
Fe           10.7569397640        5.8510006640        0.0000000000    0   0   0
Fe            7.4471027170        7.0212007970        2.0269842320    0   0   0
Fe            9.1020268110        4.6808005310        2.0269842320    0   0   0
Fe            9.1000210883        8.1910455857        4.0276887101
Fe           10.7558695238        5.8491385039        4.0277852492
Fe            7.4430519038        7.0293217546        5.9738746106
Fe            9.1078333352        4.6739835597        5.9747920927
N             6.6276961840        4.6841721834        8.2302630746
H             6.5999175634        5.6416080435        8.5895588330
H             5.8031762078        4.1827477633        8.5719140695
H             7.4653515781        4.2175363859        8.5868071263
End final coordinates

     Writing output data file ./Fe_NH3_paper_480c_ESM_std.save/

     General routines

     Parallel routines

   This run was terminated on:   6:43:35   9Jul2022

   JOB DONE.