     Program PWSCF v.6.4.1 starts on  8Jun2022 at 19:29:55

     K-points division:     npool     =       8
     R & G space division:  proc/nbgrp/npool/nimage =      20
     Waiting for input...
     Reading input from standard input
Warning: card &CELL ignored
Warning: card / ignored

     Current dimensions of program PWSCF are:
     Max number of different atomic species (ntypx) = 10
     Max number of k-points (npk) =  40000
     Max angular momentum in pseudopotentials (lmaxx) =  3

     IMPORTANT: XC functional enforced from input :
     Exchange-correlation      = PBE ( 1  4  3  4 0 0)
     Any further DFT definition will be discarded
     Please, verify this is what you really want

               file Fe.pbe-spn-kjpaw_psl.0.2.1.UPF: wavefunction(s)  3D renormalized

     Parameters for Dispersion (Grimme-D2) Correction:
       atom      VdW radius       C_6

        Fe         2.952        374.666
        N          2.640         42.670
        H          1.892          4.857

     bravais-lattice index     =            0
     lattice parameter (alat)  =      18.7640  a.u.
     unit-cell volume          =   16360.3163 (a.u.)^3
     number of atoms/cell      =           67
     number of atomic types    =            3
     number of electrons       =      1031.00
     number of Kohn-Sham states=          619
     kinetic-energy cutoff     =      60.0000  Ry
     charge density cutoff     =     480.0000  Ry
     convergence threshold     =      1.0E-08
     mixing beta               =       0.2000
     number of iterations used =           10  local-TF  mixing
     Exchange-correlation      = PBE ( 1  4  3  4 0 0)
     nstep                     =           50

     Effective Screening Medium Method
     Boundary Conditions: Metal-Slab-Metal
     field strength                   =     0.01 Ry/a.u.
     grid points for fit at edges     =        4

     celldm(1)=  18.764036  celldm(2)=   0.000000  celldm(3)=   0.000000
     celldm(4)=   0.000000  celldm(5)=   0.000000  celldm(6)=   0.000000

     crystal axes: (cart. coord. in units of alat)
               a(1) = (   1.000000   0.000000   0.000000 )
               a(2) = (   0.333330   0.942807   0.000000 )
               a(3) = (   0.000000   0.000000   2.626577 )

     reciprocal axes: (cart. coord. in units 2 pi/alat)
               b(1) = (  1.000000 -0.353551  0.000000 )
               b(2) = (  0.000000  1.060663  0.000000 )
               b(3) = (  0.000000  0.000000  0.380724 )

     PseudoPot. # 1 for Fe read from file:
     ../../SSSP/Fe.pbe-spn-kjpaw_psl.0.2.1.UPF
     MD5 check sum: e86618425769142926afa95317d90200
     Pseudo is Projector augmented-wave + core cor, Zval = 16.0
     Generated using "atomic" code by A. Dal Corso v.5.0.99 svn rev. 10869
     Shape of augmentation charge: PSQ
     Using radial grid of 1191 points,  6 beta functions with:
                l(1) =   0
                l(2) =   0
                l(3) =   1
                l(4) =   1
                l(5) =   2
                l(6) =   2
     Q(r) pseudized with 0 coefficients

     PseudoPot. # 2 for N  read from file:
     ../../SSSP/N.pbe-n-radius_5.UPF
     MD5 check sum: 16739722b17309cd8fe442a2ace49922
     Pseudo is Ultrasoft + core correction, Zval =  5.0
     Generated using "atomic" code by A. Dal Corso v.5.1
     Using radial grid of 1085 points,  4 beta functions with:
                l(1) =   0
                l(2) =   0
                l(3) =   1
                l(4) =   1
     Q(r) pseudized with 0 coefficients

     PseudoPot. # 3 for H  read from file:
     ../../SSSP/H.pbe-rrkjus_psl.1.0.0.UPF
     MD5 check sum: f52b6d4d1c606e5624b1dc7b2218f220
     Pseudo is Ultrasoft, Zval =  1.0
     Generated using "atomic" code by A. Dal Corso v.5.1
     Using radial grid of  929 points,  2 beta functions with:
                l(1) =   0
                l(2) =   0
     Q(r) pseudized with 0 coefficients

     atomic species   valence    mass     pseudopotential
        Fe            16.00    55.84500     Fe( 1.00)
        N              5.00    14.00700     N ( 1.00)
        H              1.00     1.00800     H ( 1.00)

     Starting magnetic structure
     atomic species   magnetization
        Fe           0.100
        N            0.100
        H            0.100

     No symmetry found

   Cartesian axes

     site n.     atom                  positions (alat units)
         1           Fe  tau(   1) = (   0.1666663   0.1178509   0.0000000  )
         2           Fe  tau(   2) = (   0.0000000   0.0000000   0.2041376  )
         3           Fe  tau(   3) = (   0.4999989   0.3535526   0.0000000  )
         4           Fe  tau(   4) = (   0.3333326   0.2357017   0.2041376  )
         5           Fe  tau(   5) = (   0.1659469   0.1176111   0.4051778  )
         6           Fe  tau(   6) = (   0.3326774   0.9437552   0.6041133  )
         7           Fe  tau(   7) = (   0.4995314   0.3539857   0.4039182  )
         8           Fe  tau(   8) = (   0.3327696   0.2348883   0.6042468  )
         9           Fe  tau(   9) = (   0.2499989   0.3535526   0.0000000  )
        10           Fe  tau(  10) = (   0.4166663   0.1178509   0.0000000  )
        11           Fe  tau(  11) = (   0.0833326   0.2357017   0.2041376  )
        12           Fe  tau(  12) = (   0.2500000   0.0000000   0.2041376  )
        13           Fe  tau(  13) = (   0.2500040   0.3535498   0.4054794  )
        14           Fe  tau(  14) = (   0.4158894   0.1173033   0.4045494  )
        15           Fe  tau(  15) = (   0.0820556   0.2361265   0.6031108  )
        16           Fe  tau(  16) = (   0.2495625  -0.0002917   0.6052245  )
        17           Fe  tau(  17) = (   0.6666663   0.1178509   0.0000000  )
        18           Fe  tau(  18) = (   0.5000000   0.0000000   0.2041376  )
        19           Fe  tau(  19) = (   0.9999989   0.3535526   0.0000000  )
        20           Fe  tau(  20) = (   0.8333326   0.2357017   0.2041376  )
        21           Fe  tau(  21) = (   0.6669204   0.1172533   0.4039212  )
        22           Fe  tau(  22) = (   0.4990531  -0.0002644   0.6042086  )
        23           Fe  tau(  23) = (   1.0004862   0.3531177   0.4039164  )
        24           Fe  tau(  24) = (   0.8337778   0.2351175   0.6127879  )
        25           Fe  tau(  25) = (   0.7499989   0.3535526   0.0000000  )
        26           Fe  tau(  26) = (   0.9166663   0.1178509   0.0000000  )
        27           Fe  tau(  27) = (   0.5833326   0.2357017   0.2041376  )
        28           Fe  tau(  28) = (   0.7500000   0.0000000   0.2041376  )
        29           Fe  tau(  29) = (   0.7500131   0.3535440   0.4072842  )
        30           Fe  tau(  30) = (   0.9155831   0.1193857   0.4075395  )
        31           Fe  tau(  31) = (   0.5783441   0.2321719   0.5970314  )
        32           Fe  tau(  32) = (   1.0833832   0.9441686   0.6031127  )
        33           Fe  tau(  33) = (   0.3333315   0.5892543   0.0000000  )
        34           Fe  tau(  34) = (   0.1666652   0.4714034   0.2041376  )
        35           Fe  tau(  35) = (   0.6666640   0.8249560   0.0000000  )
        36           Fe  tau(  36) = (   0.4999978   0.7071052   0.2041376  )
        37           Fe  tau(  37) = (   0.3340416   0.5895146   0.4051839  )
        38           Fe  tau(  38) = (   1.1672537   0.4722186   0.6042084  )
        39           Fe  tau(  39) = (   0.6661837   0.8243868   0.4051812  )
        40           Fe  tau(  40) = (   0.5006285   0.7062097   0.6040795  )
        41           Fe  tau(  41) = (   0.4166640   0.8249560   0.0000000  )
        42           Fe  tau(  42) = (   0.5833315   0.5892543   0.0000000  )
        43           Fe  tau(  43) = (   0.2499978   0.7071052   0.2041376  )
        44           Fe  tau(  44) = (   0.4166652   0.4714034   0.2041376  )
        45           Fe  tau(  45) = (   0.4166452   0.8249897   0.4057805  )
        46           Fe  tau(  46) = (   0.5844057   0.5877497   0.4075311  )
        47           Fe  tau(  47) = (   1.2504327   0.7074244   0.6052235  )
        48           Fe  tau(  48) = (   0.4179751   0.4709968   0.6031410  )
        49           Fe  tau(  49) = (   0.8333315   0.5892543   0.0000000  )
        50           Fe  tau(  50) = (   0.6666652   0.4714034   0.2041376  )
        51           Fe  tau(  51) = (   1.1666640   0.8249560   0.0000000  )
        52           Fe  tau(  52) = (   0.9999978   0.7071052   0.2041376  )
        53           Fe  tau(  53) = (   0.8330940   0.5898506   0.4039165  )
        54           Fe  tau(  54) = (   0.6663009   0.4719620   0.6127536  )
        55           Fe  tau(  55) = (   1.1671405   0.8255567   0.4051807  )
        56           Fe  tau(  56) = (   1.0009605   0.7073708   0.6042382  )
        57           Fe  tau(  57) = (   0.9166640   0.8249560   0.0000000  )
        58           Fe  tau(  58) = (   1.0833315   0.5892543   0.0000000  )
        59           Fe  tau(  59) = (   0.7499978   0.7071052   0.2041376  )
        60           Fe  tau(  60) = (   0.9166652   0.4714034   0.2041376  )
        61           Fe  tau(  61) = (   0.9166718   0.8249618   0.4054780  )
        62           Fe  tau(  62) = (   1.0841179   0.5898081   0.4045489  )
        63           Fe  tau(  63) = (   0.7499449   0.7057654   0.6031249  )
        64           Fe  tau(  64) = (   0.9216800   0.4749338   0.5970275  )
        65           N   tau(  65) = (   0.7501346   0.3536354   0.7529466  )
        66           H   tau(  66) = (   0.8168477   0.4009022   0.8166592  )
        67           H   tau(  67) = (   0.6834358   0.3064220   0.8167099  )

     number of k points=    10  Methfessel-Paxton smearing, width (Ry)=  0.0100
                       cart. coord. in units 2pi/alat
        k(    1) = (   0.0000000   0.0000000   0.0000000), wk =   0.0625000
        k(    2) = (   0.0000000   0.2651656   0.0000000), wk =   0.1250000
        k(    3) = (   0.0000000  -0.5303313   0.0000000), wk =   0.0625000
        k(    4) = (   0.2500000  -0.0883878   0.0000000), wk =   0.1250000
        k(    5) = (   0.2500000   0.1767779   0.0000000), wk =   0.1250000
        k(    6) = (   0.2500000  -0.6187190   0.0000000), wk =   0.1250000
        k(    7) = (   0.2500000  -0.3535534   0.0000000), wk =   0.1250000
        k(    8) = (  -0.5000000   0.1767755   0.0000000), wk =   0.0625000
        k(    9) = (  -0.5000000   0.4419412   0.0000000), wk =   0.1250000
        k(   10) = (  -0.5000000  -0.3535558   0.0000000), wk =   0.0625000

     Check: negative core charge=   -0.000039

     Initial potential from superposition of free atoms

     starting charge 1030.97192, renormalised to 1031.00000

     negative rho (up, down):  2.438E-02 2.557E-03
     Starting wfcs are  838 randomized atomic wfcs
     Checking if some PAW data can be deallocated...

     Self-consistent Calculation

     iteration #  1     ecut=    60.00 Ry     beta= 0.20
     Davidson diagonalization with overlap
     c_bands:  1 eigenvalues not converged
     ethr =  1.00E-04,  avg # of iterations = 18.6

     negative rho (up, down):  1.218E-02 3.261E-03

     total energy              =  -21088.79045937 Ry
[...]
     atom:   60    charge:   13.2715    magn:    2.3179    constr:    0.0000
     atom:   61    charge:   13.2741    magn:    2.3098    constr:    0.0000
     atom:   62    charge:   13.2731    magn:    2.2974    constr:    0.0000
     atom:   63    charge:   13.2697    magn:    2.4987    constr:    0.0000
     atom:   64    charge:   13.2839    magn:    2.4660    constr:    0.0000
     atom:   65    charge:    1.3520    magn:   -0.0013    constr:    0.0000
     atom:   66    charge:    0.4396    magn:    0.0076    constr:    0.0000
     atom:   67    charge:    0.4397    magn:    0.0076    constr:    0.0000

     End of self-consistent calculation

 ------ SPIN UP ------------

[...]

 ------ SPIN DOWN ----------

[...]

          k = 0.2500-0.3536 0.0000 (128397 PWs)   bands (ev):

[...]

          k =-0.5000-0.3536 0.0000 (128560 PWs)   bands (ev):

   -87.9643 -87.9611 -87.7599 -87.7590 -87.7164 -87.7074 -87.6982 -87.6961
   -87.6876 -87.6848 -87.6780 -87.6739 -87.6733 -87.6694 -87.6675 -87.6665
   -87.6664 -87.6640 -87.6585 -87.6554 -87.6546 -87.6527 -87.6511 -87.6497
   -87.6443 -87.6417 -87.6393 -87.6391 -87.6369 -87.6364 -87.6297 -87.6279
   -87.6223 -87.6216 -87.6176 -87.6082 -87.6039 -87.6029 -87.6008 -87.6008
   -87.6007 -87.5986 -87.5973 -87.5914 -87.5869 -87.5829 -87.5801 -87.5796
   -87.5782 -87.5779 -87.5777 -87.5771 -87.5758 -87.5746 -87.5746 -87.5720
   -87.5702 -87.5626 -87.5590 -87.5573 -87.5549 -87.5543 -87.5532 -87.5518
   -54.2887 -54.2725 -54.0798 -54.0724 -53.9935 -53.9917 -53.9799 -53.9794
   -53.9757 -53.9644 -53.9625 -53.9617 -53.9605 -53.9546 -53.9539 -53.9504
   -53.9489 -53.9489 -53.9449 -53.9443 -53.9403 -53.9378 -53.9367 -53.9341
   -53.9323 -53.9300 -53.9295 -53.9265 -53.9180 -53.9175 -53.9054 -53.9030
   -53.9018 -53.8998 -53.8968 -53.8929 -53.8927 -53.8870 -53.8781 -53.8754
   -53.8753 -53.8752 -53.8746 -53.8683 -53.8666 -53.8633 -53.8621 -53.8614
   -53.8608 -53.8598 -53.8561 -53.8544 -53.8533 -53.8528 -53.8492 -53.8482
   -53.8457 -53.8447 -53.8420 -53.8418 -53.8417 -53.8400 -53.8374 -53.8361
   -53.8246 -53.8125 -53.8116 -53.8090 -53.8087 -53.8031 -53.8025 -53.7890
   -53.7886 -53.7880 -53.7814 -53.7803 -53.7767 -53.7765 -53.7730 -53.7642
   -53.7624 -53.7604 -53.7557 -53.7550 -53.7512 -53.7510 -53.7485 -53.7478
   -53.7477 -53.7445 -53.7407 -53.7379 -53.7355 -53.7354 -53.7307 -53.7279
   -53.7266 -53.7236 -53.7221 -53.7172 -53.7129 -53.7081 -53.7072 -53.7066
   -53.7054 -53.7039 -53.7030 -53.7008 -53.7003 -53.6990 -53.6967 -53.6914
   -53.6902 -53.6886 -53.6872 -53.6857 -53.6856 -53.6801 -53.6790 -53.6778
   -53.6774 -53.6770 -53.6742 -53.6690 -53.6679 -53.6647 -53.6646 -53.6612
   -53.6603 -53.6592 -53.6585 -53.6522 -53.6483 -53.6451 -53.6446 -53.6426
   -53.6409 -53.6398 -53.6384 -53.6375 -53.6359 -53.6348 -53.6345 -53.6321
   -53.6319 -53.6300 -53.6281 -53.6274 -53.6263 -53.6246 -53.6235 -53.6208
   -53.6206 -53.6189 -53.6165 -53.6162 -53.6154 -53.6144 -53.6116 -53.6111
   -53.6102 -53.6101 -53.6099 -53.6095 -53.6086 -53.6080 -53.6072 -53.6067
   -53.6065 -53.6044 -53.6010 -53.6002 -53.5989 -53.5976 -53.5965 -53.5955
   -53.5940 -53.5939 -53.5934 -53.5924 -53.5883 -53.5864 -53.5863 -53.5846
   -53.5842 -53.5812 -53.5811 -53.5802 -53.5789 -53.5774 -53.5770 -53.5767
   -19.9377 -11.0438  -9.7714  -9.6581  -9.3332  -9.0819  -8.9792  -8.3566
    -8.2167  -7.8645  -7.7188  -7.1521  -7.0748  -7.0681  -7.0542  -6.7800
    -6.6553  -6.5678  -6.2285  -6.2203  -6.2203  -6.2088  -6.1962  -6.1845
    -6.1007  -6.0965  -6.0929  -6.0885  -6.0197  -6.0034  -5.6720  -5.6718
    -5.6596  -5.6561  -5.6300  -5.6112  -5.4471  -5.4291  -5.1984  -5.1925
    -5.1643  -5.1456  -5.1409  -5.1254  -5.0982  -5.0904  -5.0682  -5.0477
    -5.0398  -5.0177  -4.9044  -4.9024  -4.8897  -4.8866  -4.8807  -4.8282
    -4.6394  -4.6215  -4.6145  -4.6096  -4.6009  -4.5904  -4.3902  -4.3579
    -4.3426  -4.3326  -4.2902  -4.2849  -4.1954  -4.1771  -4.1193  -4.1073
    -4.1043  -4.0937  -4.0853  -4.0842  -4.0782  -4.0747  -4.0727  -4.0691
    -3.9996  -3.9877  -3.9807  -3.9744  -3.9722  -3.9683  -3.9682  -3.9597
    -3.9562  -3.9502  -3.9487  -3.8824  -3.7575  -3.7472  -3.7330  -3.7297
    -3.6307  -3.6165  -3.6144  -3.6122  -3.5912  -3.5879  -3.5791  -3.5621
    -3.5603  -3.5500  -3.5389  -3.5348  -3.5328  -3.5307  -3.5214  -3.5134
    -3.5051  -3.5041  -3.4897  -3.4824  -3.4757  -3.4714  -3.4677  -3.4676
    -3.4644  -3.4582  -3.4581  -3.4472  -3.4274  -3.4130  -3.4117  -3.3867
    -3.3793  -3.3743  -3.3653  -3.3621  -3.3607  -3.3584  -3.3537  -3.3511
    -3.3480  -3.3387  -3.3321  -3.2929  -3.2828  -3.2733  -3.1576  -3.1501
    -3.0978  -3.0969  -3.0961  -3.0958  -3.0776  -3.0602  -3.0461  -3.0259
    -3.0203  -3.0028  -2.9755  -2.9358  -2.9184  -2.9034  -2.8835  -2.8828
    -2.8776  -2.8578  -2.8574  -2.8395  -2.8356  -2.8118  -2.7894  -2.7549
    -2.6785  -2.6518  -2.6516  -2.6446  -2.6437  -2.5918  -2.5876  -2.5826
    -2.5656  -2.5569  -2.5550  -2.5541  -2.5030  -2.4830  -2.4796  -2.4659
    -2.4522  -2.4512  -2.4444  -2.4347  -2.4079  -2.1872  -2.1661  -2.1070
    -2.0810  -2.0560  -2.0416  -2.0003  -1.9382  -1.8263  -1.7937  -1.7875
    -1.7872  -1.7650  -1.7320  -1.7171  -1.6773  -1.6376  -1.6367  -1.6299
    -1.6162  -1.5968  -1.5837  -1.5509  -1.5380  -1.5295  -1.5026  -1.4981
    -1.4949  -1.4591  -1.4457  -1.4072  -1.3732  -1.3636  -1.3458  -1.3242
[...]
    -0.9935  -0.9645  -0.9476  -0.9378  -0.8903  -0.8774  -0.8520  -0.8508
    -0.8490  -0.8423  -0.8399  -0.8294  -0.8289  -0.8276  -0.8194  -0.8081
    -0.8005  -0.7952  -0.7929  -0.7874  -0.7836  -0.7776  -0.7682  -0.7644
    -0.7471  -0.7245  -0.7210  -0.7149  -0.7083  -0.7045  -0.7015  -0.6974
    -0.6904  -0.6850  -0.6821  -0.6679  -0.6568  -0.6526  -0.6453  -0.6433
    -0.6409  -0.6175  -0.6166  -0.6159  -0.6060  -0.6036  -0.6008  -0.5975
    -0.5970  -0.5968  -0.5828  -0.5660  -0.5579  -0.5500  -0.5000  -0.4777
    -0.4768  -0.4722  -0.4648  -0.4469  -0.4434  -0.4333  -0.4228  -0.4208
    -0.4149  -0.4127  -0.4075  -0.4072  -0.4064  -0.4043  -0.3974  -0.3973
    -0.3953  -0.3936  -0.3803  -0.3763  -0.3717  -0.3468  -0.3440  -0.3402
    -0.3372  -0.3322  -0.3297  -0.3261  -0.3165  -0.3123  -0.3057  -0.2994
    -0.2972  -0.2679  -0.2233  -0.2222  -0.2127  -0.2122  -0.2017  -0.1943
    -0.0690  -0.0425  -0.0131   0.0068   0.1940   0.2093   0.2148   0.2150
     0.2661   0.2677   0.2786   0.2932   0.3043   0.3045   0.3219   0.3396
     0.3696   0.4387   0.5356

     the Fermi energy is    -2.5410 ev

!    total energy              =  -21094.89759931 Ry
     Harris-Foulkes estimate   =  -21094.89759978 Ry
     estimated scf accuracy    <          5.1E-11 Ry

     The total energy is the sum of the following terms:

     one-electron contribution = -744228.83124430 Ry
     hartree contribution      =  372013.68122375 Ry
     xc contribution           =   -2235.09908371 Ry
     ewald contribution        =  358230.18251443 Ry
     Dispersion Correction     =      -1.39513457 Ry
     one-center paw contrib.   =   -4873.43626148 Ry
     smearing contrib. (-TS)   =       0.00038657 Ry

     total magnetization       =   161.72 Bohr mag/cell
     absolute magnetization    =   168.25 Bohr mag/cell

     convergence has been achieved in  12 iterations

     negative rho (up, down):  2.460E-02 1.937E-02

     Forces acting on atoms (cartesian axes, Ry/au):

     atom    1 type  1   force =     0.00025811    0.00004977    0.01000816
     atom    2 type  1   force =    -0.00088854    0.00126570   -0.00530441
     atom    3 type  1   force =     0.00021873    0.00008712    0.00969341
     atom    4 type  1   force =    -0.00054143    0.00001507   -0.01090121
     atom    5 type  1   force =    -0.00001824   -0.00000174    0.00000624
     atom    6 type  1   force =     0.00000323   -0.00000152    0.00002504
     atom    7 type  1   force =    -0.00000087   -0.00001158   -0.00003352
     atom    8 type  1   force =     0.00002787   -0.00000457    0.00003154
     atom    9 type  1   force =     0.00000143    0.00001158    0.00993404
     atom   10 type  1   force =    -0.00013972   -0.00013201    0.00925371
     atom   11 type  1   force =     0.00011354   -0.00022351   -0.01076872
     atom   12 type  1   force =    -0.00033254   -0.00016033   -0.00997249
     atom   13 type  1   force =    -0.00000353   -0.00000082    0.00001684
     atom   14 type  1   force =     0.00000509    0.00000504   -0.00000462
     atom   15 type  1   force =    -0.00003465   -0.00000221    0.00004163
     atom   16 type  1   force =    -0.00003119   -0.00001851    0.00004858
     atom   17 type  1   force =     0.00017410    0.00015766    0.00965139
     atom   18 type  1   force =    -0.00011900   -0.00050207   -0.01092748
     atom   19 type  1   force =    -0.00020975   -0.00011474    0.00964153
     atom   20 type  1   force =    -0.00001112    0.00002446   -0.00712170
     atom   21 type  1   force =    -0.00001048    0.00000609   -0.00003216
     atom   22 type  1   force =     0.00000564    0.00002816    0.00003610
     atom   23 type  1   force =    -0.00000306    0.00001272   -0.00003239
     atom   24 type  1   force =    -0.00004883    0.00006386    0.00000496
     atom   25 type  1   force =     0.00001381   -0.00001742    0.00895351
     atom   26 type  1   force =     0.00006390   -0.00009479    0.00945053
     atom   27 type  1   force =     0.00009196   -0.00004391   -0.01121378
     atom   28 type  1   force =     0.00018241   -0.00016891   -0.01076453
     atom   29 type  1   force =    -0.00000187    0.00000199   -0.00012551
     atom   30 type  1   force =     0.00000133   -0.00000125   -0.00008083
     atom   31 type  1   force =     0.00007120    0.00004847    0.00007005
     atom   32 type  1   force =     0.00001740    0.00002848    0.00004066
     atom   33 type  1   force =    -0.00024751   -0.00005642    0.01005936
     atom   34 type  1   force =     0.00051339   -0.00004827   -0.01092544
     atom   35 type  1   force =     0.00013946    0.00021673    0.01006826
     atom   36 type  1   force =     0.00079177   -0.00112598   -0.00529447
     atom   37 type  1   force =     0.00001580    0.00000245    0.00000812
     atom   38 type  1   force =    -0.00002750    0.00000385    0.00003397
     atom   39 type  1   force =    -0.00000888   -0.00001286    0.00000909
     atom   40 type  1   force =    -0.00000542    0.00000378    0.00002069
     atom   41 type  1   force =    -0.00002045    0.00003142    0.00745016
     atom   42 type  1   force =    -0.00007923    0.00010875    0.00944818
     atom   43 type  1   force =     0.00025423    0.00027483   -0.00996255
     atom   44 type  1   force =    -0.00014999    0.00022606   -0.01074084
     atom   45 type  1   force =     0.00000075   -0.00000003   -0.00003245
     atom   46 type  1   force =    -0.00000186    0.00000297   -0.00008149
     atom   47 type  1   force =     0.00003005    0.00001969    0.00004801
     atom   48 type  1   force =     0.00003325    0.00000289    0.00004102
     atom   49 type  1   force =    -0.00015307   -0.00018014    0.00969994
     atom   50 type  1   force =     0.00007463   -0.00011251   -0.00709629
     atom   51 type  1   force =    -0.00013044   -0.00023025    0.01001668
     atom   52 type  1   force =     0.00016067    0.00053074   -0.01090183
     atom   53 type  1   force =     0.00001048   -0.00000195   -0.00003259
     atom   54 type  1   force =     0.00004816   -0.00006641    0.00000241
     atom   55 type  1   force =     0.00000943    0.00001492    0.00000667
     atom   56 type  1   force =    -0.00000533   -0.00002842    0.00003062
     atom   57 type  1   force =    -0.00001151    0.00000367    0.00994613
     atom   58 type  1   force =     0.00017303    0.00008628    0.00924861
     atom   59 type  1   force =    -0.00016610    0.00021824   -0.01074634
     atom   60 type  1   force =     0.00000781   -0.00009090   -0.01122005
     atom   61 type  1   force =     0.00000121    0.00000276    0.00001737
     atom   62 type  1   force =    -0.00000570   -0.00000404   -0.00000423
     atom   63 type  1   force =    -0.00001839   -0.00002910    0.00004046
     atom   64 type  1   force =    -0.00006976   -0.00005113    0.00007130
     atom   65 type  2   force =    -0.00002817   -0.00002149    0.00000285
     atom   66 type  3   force =     0.00007132    0.00003966    0.00003360
     atom   67 type  3   force =    -0.00006106   -0.00003603    0.00001000

     Total force =     0.000341     Total SCF correction =     0.000040
     SCF correction compared to forces is large: reduce conv_thr to get better values

     bfgs converged in  12 scf cycles and  11 bfgs steps
     (criteria: energy <  7.3E-07 Ry, force <  3.9E-04 Ry/Bohr)

     End of BFGS Geometry Optimization

     Final energy   =  -21094.8975993131 Ry
Begin final coordinates

ATOMIC_POSITIONS (angstrom)
Fe       1.654912953   1.170200133   0.000000000    0   0   0
Fe       0.000000000   0.000000000   2.026984232    0   0   0
Fe       4.964738858   3.510600399   0.000000000    0   0   0
Fe       3.309825906   2.340400266   2.026984232    0   0   0
Fe       1.647820568   1.167520640   4.024844491
Fe       3.303031479   9.371284894   6.002859294
Fe       4.959559858   3.515033946   4.011630675
Fe       3.302762145   2.332524380   6.004030522
Fe       2.482363858   3.510600399   0.000000000    0   0   0
Fe       4.137287953   1.170200133   0.000000000    0   0   0
Fe       0.827450906   2.340400266   2.026984232    0   0   0
Fe       2.482375000   0.000000000   2.026984232    0   0   0
Fe       2.482413196   3.510629778   4.027132838
Fe       4.129120971   1.164404216   4.018302310
Fe       0.815766400   2.345546716   5.992335861
Fe       2.478193974  -0.002838525   6.013393189
Fe       6.619662953   1.170200133   0.000000000    0   0   0
Fe       4.964750000   0.000000000   2.026984232    0   0   0
Fe       9.929488858   3.510600399   0.000000000    0   0   0
Fe       8.274575906   2.340400266   2.026984232    0   0   0
Fe       6.622149723   1.163778389   4.011719236
Fe       4.954922011  -0.004202220   6.003851003
Fe       9.934857132   3.506158833   4.011689795
Fe       8.280479606   2.332573830   6.084468359
Fe       7.447113858   3.510600399   0.000000000    0   0   0
Fe       9.102037953   1.170200133   0.000000000    0   0   0
Fe       5.792200906   2.340400266   2.026984232    0   0   0
Fe       7.447125000   0.000000000   2.026984232    0   0   0
Fe       7.447268993   3.510506614   4.045211143
Fe       9.091602080   1.185041239   4.047917693
Fe       5.739556125   2.303157517   5.930422427
Fe      10.756095404   9.374626194   5.992424899
Fe       3.309814764   5.851000664   0.000000000    0   0   0
Fe       1.654901811   4.680800531   2.026984232    0   0   0
Fe       6.619640670   8.191400930   0.000000000    0   0   0
Fe       4.964727717   7.021200797   2.026984232    0   0   0
Fe       3.316799820   5.853910446   4.024872533
Fe      11.591763468   4.688780791   6.003840850
Fe       6.614628592   8.185849348   4.024827054
Fe       4.971245933   7.012070316   6.002786054
Fe       4.137265670   8.191400930   0.000000000    0   0   0
Fe       5.792189764   5.851000664   0.000000000    0   0   0
Fe       2.482352717   7.021200797   2.026984232    0   0   0
Fe       4.137276811   4.680800531   2.026984232    0   0   0
Fe       4.137093968   8.191695792   4.031082167
Fe       5.802530265   5.836451858   4.047866921
Fe      12.415992230   7.024324548   6.013395983
Fe       4.149252783   4.675822919   5.992506393
Fe       8.274564764   5.851000664   0.000000000    0   0   0
Fe       6.619651811   4.680800531   2.026984232    0   0   0
Fe      11.584390670   8.191400930   0.000000000    0   0   0
Fe       9.929477717   7.021200797   2.026984232    0   0   0
Fe       8.272220278   5.857435016   4.011581403
Fe       6.614544985   4.688321902   6.084146729
Fe      11.589321597   8.197281505   4.024872507
Fe       9.939370566   7.025420395   6.003988899
Fe       9.102015670   8.191400930   0.000000000    0   0   0
Fe      10.756939764   5.851000664   0.000000000    0   0   0
Fe       7.447102717   7.021200797   2.026984232    0   0   0
Fe       9.102026811   4.680800531   2.026984232    0   0   0
Fe       9.102043174   8.191471358   4.027100016
Fe      10.765223690   5.856823861   4.018295616
Fe       7.447924419   7.008417291   5.992412235
Fe       9.154864553   4.718187580   5.930335094
N        7.448348967   3.511297636   7.477224030
H        8.113398667   3.982198116   8.104886333
H        6.783365923   3.040920654   8.105358713
End final coordinates

     Writing output data file Fe_NH2_paper_480c_ESM_p25.save/

     General routines

     Parallel routines

   This run was terminated on:  19:49:54   9Jun2022

   JOB DONE.