     Program PWSCF v.6.4.1 starts on 12Jun2022 at 21: 0:44

     K-points division:     npool     =       8
     R & G space division:  proc/nbgrp/npool/nimage =      20
     Waiting for input...
     Reading input from standard input
Warning: card &CELL ignored
Warning: card / ignored

     Current dimensions of program PWSCF are:
     Max number of different atomic species (ntypx) = 10
     Max number of k-points (npk) =  40000
     Max angular momentum in pseudopotentials (lmaxx) =  3

     IMPORTANT: XC functional enforced from input :
     Exchange-correlation      = PBE ( 1  4  3  4 0 0)
     Any further DFT definition will be discarded
     Please, verify this is what you really want

               file Fe.pbe-spn-kjpaw_psl.0.2.1.UPF: wavefunction(s)  3D renormalized

     Parameters for Dispersion (Grimme-D2) Correction:
       atom      VdW radius       C_6

        Fe         2.952        374.666
        H          1.892          4.857

     bravais-lattice index     =            0
     lattice parameter (alat)  =      18.7640  a.u.
     unit-cell volume          =   16360.3163 (a.u.)^3
     number of atoms/cell      =           65
     number of atomic types    =            2
     number of electrons       =      1025.00
     number of Kohn-Sham states=          616
     kinetic-energy cutoff     =      60.0000  Ry
     charge density cutoff     =     480.0000  Ry
     convergence threshold     =      1.0E-08
     mixing beta               =       0.2000
     number of iterations used =           10  local-TF  mixing
     Exchange-correlation      = PBE ( 1  4  3  4 0 0)
     nstep                     =           50

     Effective Screening Medium Method
     Boundary Conditions: Metal-Slab-Metal
     field strength                   =    -0.01 Ry/a.u.
     grid points for fit at edges     =        4

     celldm(1)=  18.764036  celldm(2)=   0.000000  celldm(3)=   0.000000
     celldm(4)=   0.000000  celldm(5)=   0.000000  celldm(6)=   0.000000

     crystal axes: (cart. coord. in units of alat)
               a(1) = (   1.000000   0.000000   0.000000 )
               a(2) = (   0.333330   0.942807   0.000000 )
               a(3) = (   0.000000   0.000000   2.626577 )

     reciprocal axes: (cart. coord. in units 2 pi/alat)
               b(1) = (  1.000000 -0.353551  0.000000 )
               b(2) = (  0.000000  1.060663  0.000000 )
               b(3) = (  0.000000  0.000000  0.380724 )

     PseudoPot. # 1 for Fe read from file:
     ../../SSSP/Fe.pbe-spn-kjpaw_psl.0.2.1.UPF
     MD5 check sum: e86618425769142926afa95317d90200
     Pseudo is Projector augmented-wave + core cor, Zval = 16.0
     Generated using "atomic" code by A. Dal Corso v.5.0.99 svn rev. 10869
     Shape of augmentation charge: PSQ
     Using radial grid of 1191 points,  6 beta functions with:
                l(1) =   0
                l(2) =   0
                l(3) =   1
                l(4) =   1
                l(5) =   2
                l(6) =   2
     Q(r) pseudized with 0 coefficients

     PseudoPot. # 2 for H  read from file:
     ../../SSSP/H.pbe-rrkjus_psl.1.0.0.UPF
     MD5 check sum: f52b6d4d1c606e5624b1dc7b2218f220
     Pseudo is Ultrasoft, Zval =  1.0
     Generated using "atomic" code by A. Dal Corso v.5.1
     Using radial grid of  929 points,  2 beta functions with:
                l(1) =   0
                l(2) =   0
     Q(r) pseudized with 0 coefficients

     atomic species   valence    mass     pseudopotential
        Fe            16.00    55.84500     Fe( 1.00)
        H              1.00     1.00800     H ( 1.00)

     Starting magnetic structure
     atomic species   magnetization
        Fe           0.100
        H            0.100

     No symmetry found

   Cartesian axes

     site n.     atom                  positions (alat units)
         1           Fe  tau(   1) = (   0.1666663   0.1178509   0.0000000  )
         2           Fe  tau(   2) = (   0.0000000   0.0000000   0.2041376  )
         3           Fe  tau(   3) = (   0.4999989   0.3535526   0.0000000  )
         4           Fe  tau(   4) = (   0.3333326   0.2357017   0.2041376  )
         5           Fe  tau(   5) = (   0.1662163   0.1176789   0.4055273  )
         6           Fe  tau(   6) = (   0.3327662   0.9435526   0.6050216  )
         7           Fe  tau(   7) = (   0.4997900   0.3534247   0.4057801  )
         8           Fe  tau(   8) = (   0.3323031   0.2356835   0.6043978  )
         9           Fe  tau(   9) = (   0.2499989   0.3535526   0.0000000  )
        10           Fe  tau(  10) = (   0.4166663   0.1178509   0.0000000  )
        11           Fe  tau(  11) = (   0.0833326   0.2357017   0.2041376  )
        12           Fe  tau(  12) = (   0.2500000   0.0000000   0.2041376  )
        13           Fe  tau(  13) = (   0.2498401   0.3535715   0.4056206  )
        14           Fe  tau(  14) = (   0.4163942   0.1177110   0.4055971  )
        15           Fe  tau(  15) = (   0.0831164   0.2358857   0.6048612  )
        16           Fe  tau(  16) = (   0.2493488  -0.0003718   0.6053070  )
        17           Fe  tau(  17) = (   0.6666663   0.1178509   0.0000000  )
        18           Fe  tau(  18) = (   0.5000000   0.0000000   0.2041376  )
        19           Fe  tau(  19) = (   0.9999989   0.3535526   0.0000000  )
        20           Fe  tau(  20) = (   0.8333326   0.2357017   0.2041376  )
        21           Fe  tau(  21) = (   0.6664408   0.1177548   0.4057781  )
        22           Fe  tau(  22) = (   0.4995554  -0.0008614   0.6043702  )
        23           Fe  tau(  23) = (   1.0001106   0.3537276   0.4054156  )
        24           Fe  tau(  24) = (   0.8333013   0.2360492   0.6053495  )
        25           Fe  tau(  25) = (   0.7499989   0.3535526   0.0000000  )
        26           Fe  tau(  26) = (   0.9166663   0.1178509   0.0000000  )
        27           Fe  tau(  27) = (   0.5833326   0.2357017   0.2041376  )
        28           Fe  tau(  28) = (   0.7500000   0.0000000   0.2041376  )
        29           Fe  tau(  29) = (   0.7498124   0.3534280   0.4048858  )
        30           Fe  tau(  30) = (   0.9161444   0.1182566   0.4061480  )
        31           Fe  tau(  31) = (   0.5816520   0.2346034   0.6047666  )
        32           Fe  tau(  32) = (   1.0835909   0.9433361   0.6048677  )
        33           Fe  tau(  33) = (   0.3333315   0.5892543   0.0000000  )
        34           Fe  tau(  34) = (   0.1666652   0.4714034   0.2041376  )
        35           Fe  tau(  35) = (   0.6666640   0.8249560   0.0000000  )
        36           Fe  tau(  36) = (   0.4999978   0.7071052   0.2041376  )
        37           Fe  tau(  37) = (   0.3335035   0.5893486   0.4056103  )
        38           Fe  tau(  38) = (   1.1663567   0.4719375   0.6045836  )
        39           Fe  tau(  39) = (   0.6663217   0.8246640   0.4055441  )
        40           Fe  tau(  40) = (   0.5003916   0.7064710   0.6051021  )
        41           Fe  tau(  41) = (   0.4166640   0.8249560   0.0000000  )
        42           Fe  tau(  42) = (   0.5833315   0.5892543   0.0000000  )
        43           Fe  tau(  43) = (   0.2499978   0.7071052   0.2041376  )
        44           Fe  tau(  44) = (   0.4166652   0.4714034   0.2041376  )
        45           Fe  tau(  45) = (   0.4165385   0.8249250   0.4057426  )
        46           Fe  tau(  46) = (   0.5834692   0.5887186   0.4061500  )
        47           Fe  tau(  47) = (   1.2503991   0.7075124   0.6048939  )
        48           Fe  tau(  48) = (   0.4171636   0.4715962   0.6048779  )
        49           Fe  tau(  49) = (   0.8333315   0.5892543   0.0000000  )
        50           Fe  tau(  50) = (   0.6666652   0.4714034   0.2041376  )
        51           Fe  tau(  51) = (   1.1666640   0.8249560   0.0000000  )
        52           Fe  tau(  52) = (   0.9999978   0.7071052   0.2041376  )
        53           Fe  tau(  53) = (   0.8334911   0.5893605   0.4054309  )
        54           Fe  tau(  54) = (   0.6668988   0.4713607   0.6052633  )
        55           Fe  tau(  55) = (   1.1667677   0.8251921   0.4055968  )
        56           Fe  tau(  56) = (   1.0003041   0.7067591   0.6046077  )
        57           Fe  tau(  57) = (   0.9166640   0.8249560   0.0000000  )
        58           Fe  tau(  58) = (   1.0833315   0.5892543   0.0000000  )
        59           Fe  tau(  59) = (   0.7499978   0.7071052   0.2041376  )
        60           Fe  tau(  60) = (   0.9166652   0.4714034   0.2041376  )
        61           Fe  tau(  61) = (   0.9166026   0.8248708   0.4056198  )
        62           Fe  tau(  62) = (   1.0833989   0.5893584   0.4056298  )
        63           Fe  tau(  63) = (   0.7499975   0.7069497   0.6049345  )
        64           Fe  tau(  64) = (   0.9169336   0.4716697   0.6043188  )
        65           H   tau(  65) = (   0.7923329   0.3836763   0.6991287  )

     number of k points=    10  Methfessel-Paxton smearing, width (Ry)=  0.0100
                       cart. coord. in units 2pi/alat
        k(    1) = (   0.0000000   0.0000000   0.0000000), wk =   0.0625000
        k(    2) = (   0.0000000   0.2651656   0.0000000), wk =   0.1250000
        k(    3) = (   0.0000000  -0.5303313   0.0000000), wk =   0.0625000
        k(    4) = (   0.2500000  -0.0883878   0.0000000), wk =   0.1250000
        k(    5) = (   0.2500000   0.1767779   0.0000000), wk =   0.1250000
        k(    6) = (   0.2500000  -0.6187190   0.0000000), wk =   0.1250000
        k(    7) = (   0.2500000  -0.3535534   0.0000000), wk =   0.1250000
        k(    8) = (  -0.5000000   0.1767755   0.0000000), wk =   0.0625000
        k(    9) = (  -0.5000000   0.4419412   0.0000000), wk =   0.1250000
        k(   10) = (  -0.5000000  -0.3535558   0.0000000), wk =   0.0625000

     Check: negative core charge=   -0.000039

     Initial potential from superposition of free atoms

     starting charge 1024.97193, renormalised to 1025.00000

     negative rho (up, down):  2.478E-02 2.516E-03
     Starting wfcs are  833 randomized atomic wfcs
     Checking if some PAW data can be deallocated...

     Self-consistent Calculation

     iteration #  1     ecut=    60.00 Ry     beta= 0.20
     Davidson diagonalization with overlap
     c_bands:  2 eigenvalues not converged
     ethr =  1.00E-04,  avg # of iterations = 19.0

     negative rho (up, down):  1.312E-02 3.518E-03

     total energy              =  -21068.41901353 Ry
     Harris-Foulkes estimate   =  -21075.23270073 Ry
     estimated scf accuracy    <     336.35920595 Ry

     total magnetization       =   107.70 Bohr mag/cell
     absolute magnetization    =   108.59 Bohr mag/cell

     iteration #  2     ecut=    60.00 Ry     beta= 0.20
     Davidson diagonalization with overlap
     ethr =  1.00E-02,  avg # of iterations =  1.0

[...]

     Magnetic moment per site:
     atom:    1    charge:   12.6165    magn:    2.3626    constr:    0.0000
     atom:    2    charge:   12.6057    magn:    2.2141    constr:    0.0000
     atom:    3    charge:   12.6164    magn:    2.3654    constr:    0.0000
     atom:    4    charge:   12.6059    magn:    2.1926    constr:    0.0000
[...]
     atom:   54    charge:   12.6202    magn:    2.2204    constr:    0.0000
     atom:   55    charge:   12.6084    magn:    2.1747    constr:    0.0000
     atom:   56    charge:   12.6193    magn:    2.3567    constr:    0.0000
     atom:   57    charge:   12.6163    magn:    2.3601    constr:    0.0000
     atom:   58    charge:   12.6163    magn:    2.3625    constr:    0.0000
     atom:   59    charge:   12.6063    magn:    2.2050    constr:    0.0000
     atom:   60    charge:   12.6064    magn:    2.2024    constr:    0.0000
     atom:   61    charge:   12.6084    magn:    2.1750    constr:    0.0000
     atom:   62    charge:   12.6079    magn:    2.1616    constr:    0.0000
     atom:   63    charge:   12.6201    magn:    2.3549    constr:    0.0000
     atom:   64    charge:   12.6176    magn:    2.2556    constr:    0.0000
     atom:   65    charge:    0.9811    magn:   -0.0221    constr:    0.0000

     End of self-consistent calculation

 ------ SPIN UP ------------

[...]

 ------ SPIN DOWN ----------

[...]

          k = 0.2500-0.3536 0.0000 (128397 PWs)   bands (ev):

[...]

          k =-0.5000-0.3536 0.0000 (128560 PWs)   bands (ev):

   -92.1383 -92.1296 -92.1023 -92.0979 -92.0923 -92.0911 -92.0767 -92.0710
   -92.0658 -92.0639 -92.0634 -92.0623 -92.0611 -92.0592 -92.0572 -92.0568
   -92.0531 -92.0521 -92.0496 -92.0476 -92.0452 -92.0433 -92.0414 -92.0399
   -92.0381 -92.0369 -92.0369 -92.0341 -92.0331 -92.0331 -92.0317 -92.0157
   -92.0139 -92.0128 -92.0113 -92.0032 -92.0010 -92.0001 -91.9989 -91.9986
   -91.9980 -91.9968 -91.9894 -91.9822 -91.9817 -91.9811 -91.9804 -91.9803
   -91.9782 -91.9778 -91.9769 -91.9762 -91.9758 -91.9754 -91.9752 -91.9719
   -91.9713 -91.9616 -91.9603 -91.9582 -91.9556 -91.9547 -91.9537 -91.9509
   -58.4156 -58.3855 -58.3600 -58.3535 -58.3530 -58.3498 -58.3477 -58.3458
   -58.3429 -58.3403 -58.3400 -58.3400 -58.3375 -58.3358 -58.3345 -58.3293
   -58.3273 -58.3272 -58.3269 -58.3255 -58.3214 -58.3199 -58.3162 -58.3137
   -58.3128 -58.3088 -58.3040 -58.3021 -58.2991 -58.2966 -58.2930 -58.2929
   -58.2834 -58.2805 -58.2788 -58.2736 -58.2705 -58.2673 -58.2649 -58.2633
   -58.2616 -58.2598 -58.2581 -58.2551 -58.2541 -58.2524 -58.2522 -58.2516
   -58.2515 -58.2510 -58.2498 -58.2489 -58.2481 -58.2463 -58.2422 -58.2409
   -58.2392 -58.2388 -58.2383 -58.2373 -58.2372 -58.2355 -58.2173 -58.2134
   -58.2034 -58.2013 -58.1984 -58.1936 -58.1920 -58.1914 -58.1865 -58.1824
   -58.1790 -58.1764 -58.1725 -58.1665 -58.1613 -58.1592 -58.1498 -58.1490
   -58.1448 -58.1437 -58.1428 -58.1418 -58.1390 -58.1371 -58.1358 -58.1358
   -58.1338 -58.1319 -58.1297 -58.1297 -58.1290 -58.1276 -58.1213 -58.1173
   -58.1149 -58.1126 -58.1085 -58.1082 -58.1062 -58.1035 -58.1004 -58.0984
   -58.0984 -58.0966 -58.0959 -58.0909 -58.0900 -58.0885 -58.0876 -58.0853
   -58.0850 -58.0811 -58.0759 -58.0749 -58.0727 -58.0697 -58.0688 -58.0651
   -58.0636 -58.0624 -58.0608 -58.0606 -58.0566 -58.0543 -58.0531 -58.0530
   -58.0512 -58.0487 -58.0446 -58.0433 -58.0402 -58.0387 -58.0373 -58.0372
   -58.0368 -58.0357 -58.0343 -58.0330 -58.0307 -58.0306 -58.0294 -58.0291
   -58.0281 -58.0268 -58.0267 -58.0263 -58.0234 -58.0200 -58.0186 -58.0168
   -58.0166 -58.0137 -58.0135 -58.0118 -58.0100 -58.0097 -58.0088 -58.0078
   -58.0075 -58.0072 -58.0068 -58.0064 -58.0060 -58.0057 -58.0046 -58.0042
   -58.0041 -57.9999 -57.9980 -57.9970 -57.9964 -57.9955 -57.9949 -57.9942
   -57.9938 -57.9932 -57.9927 -57.9924 -57.9846 -57.9843 -57.9825 -57.9804
   -57.9803 -57.9790 -57.9790 -57.9780 -57.9765 -57.9748 -57.9741 -57.9734
   -14.1350 -14.0549 -13.5710 -13.4699 -13.1397 -12.7619 -12.4677 -12.2190
   -11.8921 -11.4683 -11.4683 -11.4663 -11.4367 -11.0566 -10.8945 -10.6225
   -10.6211 -10.6181 -10.6168 -10.6158 -10.5902 -10.5223 -10.4885 -10.4852
   -10.4850 -10.4835 -10.2994 -10.0590 -10.0586 -10.0580 -10.0566 -10.0556
    -9.9477  -9.8462  -9.8205  -9.5889  -9.5748  -9.5578  -9.5564  -9.5533
    -9.5033  -9.4957  -9.4855  -9.4596  -9.4555  -9.4516  -9.3701  -9.2948
    -9.2924  -9.2841  -9.2769  -9.2644  -9.2052  -9.0213  -9.0199  -9.0071
    -9.0069  -9.0013  -8.9684  -8.7847  -8.7559  -8.7351  -8.7216  -8.6829
    -8.6820  -8.5775  -8.5669  -8.4985  -8.4976  -8.4941  -8.4940  -8.4857
    -8.4714  -8.4689  -8.4604  -8.4598  -8.4476  -8.3689  -8.3641  -8.3621
    -8.3605  -8.3587  -8.3573  -8.3543  -8.3534  -8.3494  -8.3492  -8.3468
    -8.2451  -8.1447  -8.1367  -8.1270  -8.1263  -7.9987  -7.9978  -7.9959
    -7.9871  -7.9848  -7.9832  -7.9512  -7.9424  -7.9333  -7.9313  -7.9232
    -7.9225  -7.9192  -7.9191  -7.9039  -7.8999  -7.8948  -7.8923  -7.8752
    -7.8685  -7.8639  -7.8632  -7.8597  -7.8565  -7.8562  -7.8540  -7.8509
    -7.8491  -7.8142  -7.8134  -7.8073  -7.7797  -7.7574  -7.7549  -7.7526
    -7.7506  -7.7491  -7.7490  -7.7461  -7.7459  -7.7441  -7.7382  -7.7322
    -7.6834  -7.6776  -7.6556  -7.5520  -7.5377  -7.4816  -7.4803  -7.4764
    -7.4747  -7.4620  -7.4542  -7.4236  -7.4197  -7.4169  -7.3886  -7.3123
    -7.3093  -7.3031  -7.3012  -7.2938  -7.2905  -7.2898  -7.2453  -7.2398
    -7.2316  -7.2275  -7.2039  -7.1854  -7.1141  -7.0519  -7.0514  -7.0465
    -7.0344  -6.9765  -6.9705  -6.9654  -6.9571  -6.9478  -6.9434  -6.9374
    -6.9338  -6.9322  -6.9254  -6.9076  -6.8637  -6.8471  -6.8469  -6.8410
    -6.8209  -6.8126  -6.5973  -6.5688  -6.5596  -6.4969  -6.4649  -6.4523
    -6.3958  -6.3835  -6.2354  -6.2032  -6.1985  -6.1798  -6.1435  -6.1359
    -6.0754  -6.0632  -6.0335  -6.0284  -6.0244  -6.0202  -5.9654  -5.9510
    -5.9446  -5.9415  -5.9035  -5.9013  -5.8962  -5.8828  -5.8092  -5.7996
    -5.7958  -5.7867  -5.7853  -5.7804  -5.7063  -5.7013  -5.6909  -5.6852
[...]
    -5.5113  -5.5089  -5.4864  -5.4759  -5.4413  -5.4316  -5.3798  -5.3776
    -5.3329  -5.3271  -5.2642  -5.2558  -5.2526  -5.2447  -5.2432  -5.2385
    -5.2360  -5.2355  -5.2302  -5.2285  -5.2101  -5.1910  -5.1894  -5.1889
    -5.1854  -5.1837  -5.1809  -5.1798  -5.1749  -5.1739  -5.1602  -5.1542
    -5.1101  -5.1073  -5.1067  -5.1047  -5.1001  -5.0987  -5.0789  -5.0785
    -5.0763  -5.0754  -5.0740  -5.0726  -5.0488  -5.0400  -5.0365  -5.0353
    -5.0177  -5.0120  -5.0037  -5.0034  -4.9995  -4.9965  -4.9940  -4.9914
    -4.9903  -4.9898  -4.9698  -4.9694  -4.9543  -4.9515  -4.8965  -4.8881
    -4.8709  -4.8672  -4.8555  -4.8543  -4.8503  -4.8489  -4.8184  -4.8145
    -4.8129  -4.8060  -4.8029  -4.8022  -4.8012  -4.8009  -4.7913  -4.7911
    -4.7882  -4.7867  -4.7847  -4.7845  -4.7833  -4.7766  -4.7383  -4.7363
    -4.7274  -4.7269  -4.7259  -4.7234  -4.7107  -4.7074  -4.7058  -4.7006
    -4.6986  -4.6972  -4.6179  -4.6161  -4.6151  -4.6083  -4.6058  -4.6054
    -4.4619  -4.4371  -4.4003  -4.3917  -4.2677  -4.1903  -4.1818  -4.1808
    -4.1715  -4.1241  -4.1153  -4.1129  -4.1084  -4.1010  -4.0933  -4.0904

     the Fermi energy is    -6.9469 ev

!    total energy              =  -21073.46533624 Ry
     Harris-Foulkes estimate   =  -21073.46533685 Ry
     estimated scf accuracy    <          3.7E-11 Ry

     The total energy is the sum of the following terms:

     one-electron contribution = -738748.85155758 Ry
     hartree contribution      =  369107.20532605 Ry
     xc contribution           =   -2228.94788966 Ry
     ewald contribution        =  355671.93513392 Ry
     Dispersion Correction     =      -1.37723435 Ry
     one-center paw contrib.   =   -4873.42999162 Ry
     smearing contrib. (-TS)   =       0.00087700 Ry

     total magnetization       =   162.52 Bohr mag/cell
     absolute magnetization    =   169.03 Bohr mag/cell

     convergence has been achieved in  11 iterations

     negative rho (up, down):  2.498E-02 1.891E-02

     Forces acting on atoms (cartesian axes, Ry/au):

     atom    1 type  1   force =     0.00014422    0.00012369    0.00937527
     atom    2 type  1   force =    -0.00003405   -0.00019132   -0.00838772
     atom    3 type  1   force =    -0.00009341   -0.00000852    0.00885705
     atom    4 type  1   force =    -0.00022615   -0.00014680   -0.00925915
     atom    5 type  1   force =    -0.00000155    0.00001397   -0.00003218
     atom    6 type  1   force =     0.00004053    0.00001311    0.00002630
     atom    7 type  1   force =     0.00006646   -0.00004418    0.00001133
     atom    8 type  1   force =     0.00002685    0.00002325    0.00002711
     atom    9 type  1   force =     0.00006385    0.00005487    0.00927795
     atom   10 type  1   force =    -0.00004670   -0.00005826    0.00914359
     atom   11 type  1   force =     0.00026178    0.00009258   -0.00964663
     atom   12 type  1   force =     0.00002770    0.00012084   -0.00878275
     atom   13 type  1   force =    -0.00000749    0.00002106    0.00001016
     atom   14 type  1   force =     0.00005023    0.00002303   -0.00000518
     atom   15 type  1   force =     0.00002075    0.00004183    0.00009088
     atom   16 type  1   force =     0.00002629    0.00001378    0.00005054
     atom   17 type  1   force =    -0.00001058   -0.00012108    0.00880651
     atom   18 type  1   force =    -0.00021425   -0.00011082   -0.00924446
     atom   19 type  1   force =     0.00002072    0.00011968    0.00895338
     atom   20 type  1   force =     0.00030034   -0.00054669   -0.00975015
     atom   21 type  1   force =    -0.00000600    0.00005763    0.00000417
     atom   22 type  1   force =     0.00004101   -0.00002017    0.00003250
     atom   23 type  1   force =     0.00001948    0.00000169   -0.00004181
     atom   24 type  1   force =     0.00002413   -0.00012337   -0.00003982
     atom   25 type  1   force =     0.00013599    0.00005229    0.00888576
     atom   26 type  1   force =    -0.00018313    0.00012309    0.00933119
     atom   27 type  1   force =    -0.00021223   -0.00022416   -0.00892212
     atom   28 type  1   force =    -0.00023114   -0.00008064   -0.00910961
     atom   29 type  1   force =    -0.00001006   -0.00001821    0.00004763
     atom   30 type  1   force =    -0.00001784    0.00003566   -0.00003055
     atom   31 type  1   force =     0.00002439   -0.00001030    0.00010481
     atom   32 type  1   force =     0.00003138   -0.00001199    0.00003143
     atom   33 type  1   force =    -0.00005335   -0.00029411    0.00940417
     atom   34 type  1   force =     0.00030269    0.00026619   -0.00941456
     atom   35 type  1   force =     0.00012264    0.00013239    0.00940094
     atom   36 type  1   force =    -0.00031646    0.00020058   -0.00835472
     atom   37 type  1   force =     0.00002679    0.00000988   -0.00004819
     atom   38 type  1   force =     0.00000522   -0.00000269    0.00007467
     atom   39 type  1   force =     0.00001173   -0.00000993   -0.00005132
     atom   40 type  1   force =     0.00003353    0.00002283    0.00000092
     atom   41 type  1   force =    -0.00002746    0.00001507    0.00816407
     atom   42 type  1   force =     0.00004576   -0.00020098    0.00938601
     atom   43 type  1   force =    -0.00017982   -0.00000027   -0.00906657
     atom   44 type  1   force =    -0.00023893   -0.00016253   -0.00907655
     atom   45 type  1   force =     0.00002603    0.00002072   -0.00007993
     atom   46 type  1   force =     0.00004529   -0.00004637   -0.00003847
     atom   47 type  1   force =     0.00003901    0.00000699    0.00007938
     atom   48 type  1   force =     0.00002691    0.00001383    0.00000057
     atom   49 type  1   force =     0.00015283   -0.00005236    0.00900038
     atom   50 type  1   force =    -0.00037470    0.00039553   -0.00969270
     atom   51 type  1   force =    -0.00032401    0.00007079    0.00938986
     atom   52 type  1   force =     0.00036592    0.00025913   -0.00943801
     atom   53 type  1   force =     0.00002354   -0.00000350   -0.00004870
     atom   54 type  1   force =    -0.00007547    0.00002749    0.00000368
     atom   55 type  1   force =     0.00002455    0.00001343   -0.00003495
     atom   56 type  1   force =     0.00001343   -0.00002834    0.00007700
     atom   57 type  1   force =     0.00002727    0.00008455    0.00928179
     atom   58 type  1   force =    -0.00012006   -0.00010382    0.00909538
     atom   59 type  1   force =     0.00019061    0.00029513   -0.00961189
     atom   60 type  1   force =     0.00002327   -0.00003932   -0.00943100
     atom   61 type  1   force =     0.00001929   -0.00003463    0.00001184
     atom   62 type  1   force =    -0.00002816   -0.00003788   -0.00002340
     atom   63 type  1   force =     0.00005692   -0.00002619    0.00003714
     atom   64 type  1   force =     0.00009194    0.00003699   -0.00009307
     atom   65 type  2   force =     0.00003170   -0.00004411   -0.00000401

     Total force =     0.000400     Total SCF correction =     0.000033

     bfgs converged in   6 scf cycles and   5 bfgs steps
     (criteria: energy <  7.3E-07 Ry, force <  3.9E-04 Ry/Bohr)

     End of BFGS Geometry Optimization

     Final energy   =  -21073.4653362436 Ry
Begin final coordinates

ATOMIC_POSITIONS (angstrom)
Fe       1.654912953   1.170200133   0.000000000    0   0   0
Fe       0.000000000   0.000000000   2.026984232    0   0   0
Fe       4.964738858   3.510600399   0.000000000    0   0   0
Fe       3.309825906   2.340400266   2.026984232    0   0   0
Fe       1.650471262   1.168785870   4.027507394
Fe       3.304448991   9.369123318   6.006970955
Fe       4.962622247   3.509235893   4.029636491
Fe       3.300087063   2.340011430   6.001118117
Fe       2.482363858   3.510600399   0.000000000    0   0   0
Fe       4.137287953   1.170200133   0.000000000    0   0   0
Fe       0.827450906   2.340400266   2.026984232    0   0   0
Fe       2.482375000   0.000000000   2.026984232    0   0   0
Fe       2.480971114   3.510886285   4.028164561
Fe       4.134309080   1.168528064   4.027537437
Fe       0.824485746   2.342274498   6.006244283
Fe       2.476444986  -0.003356200   6.010342587
Fe       6.619662953   1.170200133   0.000000000    0   0   0
Fe       4.964750000   0.000000000   2.026984232    0   0   0
Fe       9.929488858   3.510600399   0.000000000    0   0   0
Fe       8.274575906   2.340400266   2.026984232    0   0   0
Fe       6.617481950   1.169076920   4.029742667
Fe       4.960412809  -0.008328379   6.000905229
Fe       9.930675394   3.512146377   4.025682050
Fe       8.274597568   2.344379860   6.011659944
Fe       7.447113858   3.510600399   0.000000000    0   0   0
Fe       9.102037953   1.170200133   0.000000000    0   0   0
Fe       5.792200906   2.340400266   2.026984232    0   0   0
Fe       7.447125000   0.000000000   2.026984232    0   0   0
Fe       7.445374181   3.509457457   4.020349573
Fe       9.096989676   1.174091157   4.033299732
Fe       5.776144115   2.329696095   6.006233224
Fe      10.760141118   9.367184763   6.005630364
Fe       3.309814764   5.851000664   0.000000000    0   0   0
Fe       1.654901811   4.680800531   2.026984232    0   0   0
Fe       6.619640670   8.191400930   0.000000000    0   0   0
Fe       4.964727717   7.021200797   2.026984232    0   0   0
Fe       3.311519426   5.851998311   4.027961977
Fe      11.580980744   4.686423330   6.003604301
Fe       6.616450198   8.188487769   4.027593501
Fe       4.968979636   7.015040780   6.007476544
Fe       4.137265670   8.191400930   0.000000000    0   0   0
Fe       5.792189764   5.851000664   0.000000000    0   0   0
Fe       2.482352717   7.021200797   2.026984232    0   0   0
Fe       4.137276811   4.680800531   2.026984232    0   0   0
Fe       4.136029852   8.191198099   4.029330544
Fe       5.793586741   5.845708464   4.033391906
Fe      12.415957819   7.025125763   6.006387457
Fe       4.142968201   4.683086539   6.005445439
Fe       8.274564764   5.851000664   0.000000000    0   0   0
Fe       6.619651811   4.680800531   2.026984232    0   0   0
Fe      11.584390670   8.191400930   0.000000000    0   0   0
Fe       9.929477717   7.021200797   2.026984232    0   0   0
Fe       8.276159355   5.852020787   4.025706708
Fe       6.622705195   4.680307597   6.011135594
Fe      11.585445775   8.193609181   4.027912045
Fe       9.932750043   7.017021785   6.003856170
Fe       9.102015670   8.191400930   0.000000000    0   0   0
Fe      10.756939764   5.851000664   0.000000000    0   0   0
Fe       7.447102717   7.021200797   2.026984232    0   0   0
Fe       9.102026811   4.680800531   2.026984232    0   0   0
Fe       9.101674830   8.190603370   4.028137261
Fe      10.758112327   5.852330904   4.028208260
Fe       7.446836752   7.018661693   6.006404766
Fe       9.104146364   4.682850360   5.999937083
H        7.867573001   3.809332182   6.940267286
End final coordinates

     Writing output data file Fe_H_paper_480c_ESM_pn25.save/

     General routines

     Parallel routines

   This run was terminated on:   9:46:25  13Jun2022

   JOB DONE.