     Program PWSCF v.6.4.1 starts on 13Jun2022 at  1:36:35

     K-points division:     npool     =       8
     R & G space division:  proc/nbgrp/npool/nimage =      20
     Waiting for input...
     Reading input from standard input
Warning: card &CELL ignored
Warning: card / ignored

     Current dimensions of program PWSCF are:
     Max number of different atomic species (ntypx) = 10
     Max number of k-points (npk) =  40000
     Max angular momentum in pseudopotentials (lmaxx) =  3

     IMPORTANT: XC functional enforced from input :
     Exchange-correlation      = PBE ( 1  4  3  4 0 0)
     Any further DFT definition will be discarded
     Please, verify this is what you really want

               file Fe.pbe-spn-kjpaw_psl.0.2.1.UPF: wavefunction(s)  3D renormalized

     Parameters for Dispersion (Grimme-D2) Correction:
       atom      VdW radius       C_6

        Fe         2.952        374.666
        N          2.640         42.670
        H          1.892          4.857

     bravais-lattice index     =            0
     lattice parameter (alat)  =      18.7640  a.u.
     unit-cell volume          =   16360.3163 (a.u.)^3
     number of atoms/cell      =           67
     number of atomic types    =            3
     number of electrons       =      1031.00
     number of Kohn-Sham states=          619
     kinetic-energy cutoff     =      60.0000  Ry
     charge density cutoff     =     480.0000  Ry
     convergence threshold     =      1.0E-08
     mixing beta               =       0.2000
     number of iterations used =           10  local-TF  mixing
     Exchange-correlation      = PBE ( 1  4  3  4 0 0)
     nstep                     =           50

     Effective Screening Medium Method
     Boundary Conditions: Metal-Slab-Metal
     field strength                   =    -0.01 Ry/a.u.
     grid points for fit at edges     =        4

     celldm(1)=  18.764036  celldm(2)=   0.000000  celldm(3)=   0.000000
     celldm(4)=   0.000000  celldm(5)=   0.000000  celldm(6)=   0.000000

     crystal axes: (cart. coord. in units of alat)
               a(1) = (   1.000000   0.000000   0.000000 )
               a(2) = (   0.333330   0.942807   0.000000 )
               a(3) = (   0.000000   0.000000   2.626577 )

     reciprocal axes: (cart. coord. in units 2 pi/alat)
               b(1) = (  1.000000 -0.353551  0.000000 )
               b(2) = (  0.000000  1.060663  0.000000 )
               b(3) = (  0.000000  0.000000  0.380724 )

     PseudoPot. # 1 for Fe read from file:
     ../../SSSP/Fe.pbe-spn-kjpaw_psl.0.2.1.UPF
     MD5 check sum: e86618425769142926afa95317d90200
     Pseudo is Projector augmented-wave + core cor, Zval = 16.0
     Generated using "atomic" code by A. Dal Corso v.5.0.99 svn rev. 10869
     Shape of augmentation charge: PSQ
     Using radial grid of 1191 points,  6 beta functions with:
                l(1) =   0
                l(2) =   0
                l(3) =   1
                l(4) =   1
                l(5) =   2
                l(6) =   2
     Q(r) pseudized with 0 coefficients

     PseudoPot. # 2 for N  read from file:
     ../../SSSP/N.pbe-n-radius_5.UPF
     MD5 check sum: 16739722b17309cd8fe442a2ace49922
     Pseudo is Ultrasoft + core correction, Zval =  5.0
     Generated using "atomic" code by A. Dal Corso v.5.1
     Using radial grid of 1085 points,  4 beta functions with:
                l(1) =   0
                l(2) =   0
                l(3) =   1
                l(4) =   1
     Q(r) pseudized with 0 coefficients

     PseudoPot. # 3 for H  read from file:
     ../../SSSP/H.pbe-rrkjus_psl.1.0.0.UPF
     MD5 check sum: f52b6d4d1c606e5624b1dc7b2218f220
     Pseudo is Ultrasoft, Zval =  1.0
     Generated using "atomic" code by A. Dal Corso v.5.1
     Using radial grid of  929 points,  2 beta functions with:
                l(1) =   0
                l(2) =   0
     Q(r) pseudized with 0 coefficients

     atomic species   valence    mass     pseudopotential
        Fe            16.00    55.84500     Fe( 1.00)
        N              5.00    14.00700     N ( 1.00)
        H              1.00     1.00800     H ( 1.00)

     Starting magnetic structure
     atomic species   magnetization
        Fe           0.100
        N            0.100
        H            0.100

     No symmetry found

   Cartesian axes

     site n.     atom                  positions (alat units)
         1           Fe  tau(   1) = (   0.1666663   0.1178509   0.0000000  )
         2           Fe  tau(   2) = (   0.0000000   0.0000000   0.2041376  )
         3           Fe  tau(   3) = (   0.4999989   0.3535526   0.0000000  )
         4           Fe  tau(   4) = (   0.3333326   0.2357017   0.2041376  )
         5           Fe  tau(   5) = (   0.1688526   0.1178123   0.4052638  )
         6           Fe  tau(   6) = (   0.3343666   0.9422529   0.6043949  )
         7           Fe  tau(   7) = (   0.5011705   0.3549870   0.4070642  )
         8           Fe  tau(   8) = (   0.3393831   0.2351315   0.6052202  )
         9           Fe  tau(   9) = (   0.2499989   0.3535526   0.0000000  )
        10           Fe  tau(  10) = (   0.4166663   0.1178509   0.0000000  )
        11           Fe  tau(  11) = (   0.0833326   0.2357017   0.2041376  )
        12           Fe  tau(  12) = (   0.2500000   0.0000000   0.2041376  )
        13           Fe  tau(  13) = (   0.2500559   0.3534950   0.4069210  )
        14           Fe  tau(  14) = (   0.4191000   0.1196350   0.4061592  )
        15           Fe  tau(  15) = (   0.0871435   0.2338643   0.6041281  )
        16           Fe  tau(  16) = (   0.2514579   0.0011120   0.6053465  )
        17           Fe  tau(  17) = (   0.6666663   0.1178509   0.0000000  )
        18           Fe  tau(  18) = (   0.5000000   0.0000000   0.2041376  )
        19           Fe  tau(  19) = (   0.9999989   0.3535526   0.0000000  )
        20           Fe  tau(  20) = (   0.8333326   0.2357017   0.2041376  )
        21           Fe  tau(  21) = (   0.6683563   0.1185166   0.4070365  )
        22           Fe  tau(  22) = (   0.5013944   0.0059648   0.6052472  )
        23           Fe  tau(  23) = (   0.9987787   0.3520559   0.4068378  )
        24           Fe  tau(  24) = (   0.8424589   0.2228022   0.6027904  )
        25           Fe  tau(  25) = (   0.7499989   0.3535526   0.0000000  )
        26           Fe  tau(  26) = (   0.9166663   0.1178509   0.0000000  )
        27           Fe  tau(  27) = (   0.5833326   0.2357017   0.2041376  )
        28           Fe  tau(  28) = (   0.7500000   0.0000000   0.2041376  )
        29           Fe  tau(  29) = (   0.7499601   0.3535290   0.4028893  )
        30           Fe  tau(  30) = (   0.9185178   0.1150390   0.4041441  )
        31           Fe  tau(  31) = (   0.5928424   0.2424388   0.6092791  )
        32           Fe  tau(  32) = (   1.0845617   0.9388154   0.6041901  )
        33           Fe  tau(  33) = (   0.3333315   0.5892543   0.0000000  )
        34           Fe  tau(  34) = (   0.1666652   0.4714034   0.2041376  )
        35           Fe  tau(  35) = (   0.6666640   0.8249560   0.0000000  )
        36           Fe  tau(  36) = (   0.4999978   0.7071052   0.2041376  )
        37           Fe  tau(  37) = (   0.3312301   0.5893346   0.4055736  )
        38           Fe  tau(  38) = (   1.1607807   0.4712720   0.6048225  )
        39           Fe  tau(  39) = (   0.6673353   0.8270823   0.4052856  )
        40           Fe  tau(  40) = (   0.4998026   0.7083523   0.6043520  )
        41           Fe  tau(  41) = (   0.4166640   0.8249560   0.0000000  )
        42           Fe  tau(  42) = (   0.5833315   0.5892543   0.0000000  )
        43           Fe  tau(  43) = (   1.2499978   0.7071052   0.2041376  )
        44           Fe  tau(  44) = (   0.4166652   0.4714034   0.2041376  )
        45           Fe  tau(  45) = (   0.4165428   0.8249182   0.4043922  )
        46           Fe  tau(  46) = (   0.5812921   0.5919617   0.4041411  )
        47           Fe  tau(  47) = (   1.2473904   0.7053047   0.6055422  )
        48           Fe  tau(  48) = (   0.4132843   0.4739990   0.6042619  )
        49           Fe  tau(  49) = (   0.8333315   0.5892543   0.0000000  )
        50           Fe  tau(  50) = (   0.6666652   0.4714034   0.2041376  )
        51           Fe  tau(  51) = (   1.1666640   0.8249560   0.0000000  )
        52           Fe  tau(  52) = (   0.9999978   0.7071052   0.2041376  )
        53           Fe  tau(  53) = (   0.8314839   0.5886441   0.4068646  )
        54           Fe  tau(  54) = (   0.6575280   0.4843558   0.6027900  )
        55           Fe  tau(  55) = (   1.1660113   0.8229814   0.4055641  )
        56           Fe  tau(  56) = (   0.9978793   0.7016247   0.6048225  )
        57           Fe  tau(  57) = (   0.9166640   0.8249560   0.0000000  )
        58           Fe  tau(  58) = (   1.0833315   0.5892543   0.0000000  )
        59           Fe  tau(  59) = (   0.7499978   0.7071052   0.2041376  )
        60           Fe  tau(  60) = (   0.9166652   0.4714034   0.2041376  )
        61           Fe  tau(  61) = (   0.9165956   0.8250802   0.4069362  )
        62           Fe  tau(  62) = (   1.0808343   0.5875346   0.4059196  )
        63           Fe  tau(  63) = (   0.7494961   0.7113818   0.6041901  )
        64           Fe  tau(  64) = (   0.9074158   0.4648707   0.6092031  )
        65           N   tau(  65) = (   0.7500994   0.3536582   0.7047786  )
        66           H   tau(  66) = (   0.7502549   0.3537961   0.8083370  )
        67           H   tau(  67) = (   0.4593157   0.8551593   0.6989822  )

     number of k points=    10  Methfessel-Paxton smearing, width (Ry)=  0.0100
                       cart. coord. in units 2pi/alat
        k(    1) = (   0.0000000   0.0000000   0.0000000), wk =   0.0625000
        k(    2) = (   0.0000000   0.2651656   0.0000000), wk =   0.1250000
        k(    3) = (   0.0000000  -0.5303313   0.0000000), wk =   0.0625000
        k(    4) = (   0.2500000  -0.0883878   0.0000000), wk =   0.1250000
        k(    5) = (   0.2500000   0.1767779   0.0000000), wk =   0.1250000
        k(    6) = (   0.2500000  -0.6187190   0.0000000), wk =   0.1250000
        k(    7) = (   0.2500000  -0.3535534   0.0000000), wk =   0.1250000
        k(    8) = (  -0.5000000   0.1767755   0.0000000), wk =   0.0625000
        k(    9) = (  -0.5000000   0.4419412   0.0000000), wk =   0.1250000
        k(   10) = (  -0.5000000  -0.3535558   0.0000000), wk =   0.0625000

     Check: negative core charge=   -0.000039

     Initial potential from superposition of free atoms

     starting charge 1030.97192, renormalised to 1031.00000

     negative rho (up, down):  2.445E-02 2.518E-03
     Starting wfcs are  838 randomized atomic wfcs
     Checking if some PAW data can be deallocated...

     Self-consistent Calculation

     iteration #  1     ecut=    60.00 Ry     beta= 0.20
     Davidson diagonalization with overlap
     c_bands:  1 eigenvalues not converged
     ethr =  1.00E-04,  avg # of iterations = 18.7

     negative rho (up, down):  1.294E-02 3.520E-03

     total energy              =  -21090.18409385 Ry
[...]
     atom:   59    charge:   12.5971    magn:    2.2079    constr:    0.0000
     atom:   60    charge:   12.5962    magn:    2.1992    constr:    0.0000
     atom:   61    charge:   12.5976    magn:    2.1885    constr:    0.0000
     atom:   62    charge:   12.6008    magn:    2.1363    constr:    0.0000
     atom:   63    charge:   12.6113    magn:    2.3314    constr:    0.0000
     atom:   64    charge:   12.6015    magn:    2.2437    constr:    0.0000
     atom:   65    charge:    1.3300    magn:   -0.0330    constr:    0.0000
     atom:   66    charge:    0.4350    magn:    0.0072    constr:    0.0000
     atom:   67    charge:    0.3546    magn:   -0.0205    constr:    0.0000

     End of self-consistent calculation

 ------ SPIN UP ------------

[...]

 ------ SPIN DOWN ----------

[...]

          k = 0.2500-0.3536 0.0000 (128397 PWs)   bands (ev):

[...]

          k =-0.5000-0.3536 0.0000 (128560 PWs)   bands (ev):

   -92.3525 -92.3509 -92.0043 -92.0034 -91.9547 -91.9505 -91.9324 -91.9274
   -91.9099 -91.9039 -91.8875 -91.8843 -91.8770 -91.8757 -91.8755 -91.8722
   -91.8655 -91.8633 -91.8612 -91.8571 -91.8547 -91.8531 -91.8529 -91.8502
   -91.8469 -91.8438 -91.8421 -91.8382 -91.8376 -91.8359 -91.8358 -91.8342
   -91.8340 -91.8319 -91.8318 -91.8158 -91.8143 -91.8123 -91.8117 -91.8063
   -91.8044 -91.7943 -91.7937 -91.7928 -91.7925 -91.7924 -91.7910 -91.7904
   -91.7871 -91.7795 -91.7744 -91.7706 -91.7705 -91.7703 -91.7699 -91.7691
   -91.7688 -91.7681 -91.7679 -91.7662 -91.7483 -91.7479 -91.7472 -91.7449
   -58.7890 -58.7736 -58.4455 -58.4404 -58.2924 -58.2753 -58.2364 -58.2355
   -58.2244 -58.1999 -58.1725 -58.1662 -58.1659 -58.1600 -58.1582 -58.1558
   -58.1545 -58.1523 -58.1479 -58.1451 -58.1417 -58.1414 -58.1404 -58.1375
   -58.1355 -58.1313 -58.1295 -58.1259 -58.1246 -58.1195 -58.1151 -58.1143
   -58.1120 -58.1098 -58.1091 -58.1052 -58.1001 -58.0972 -58.0944 -58.0940
   -58.0925 -58.0878 -58.0866 -58.0815 -58.0796 -58.0771 -58.0750 -58.0739
   -58.0674 -58.0608 -58.0601 -58.0542 -58.0527 -58.0521 -58.0492 -58.0463
   -58.0462 -58.0461 -58.0451 -58.0451 -58.0393 -58.0376 -58.0369 -58.0358
   -58.0352 -58.0342 -58.0291 -58.0262 -58.0226 -58.0194 -58.0148 -58.0127
   -58.0071 -58.0002 -57.9976 -57.9956 -57.9898 -57.9868 -57.9804 -57.9793
   -57.9772 -57.9770 -57.9686 -57.9671 -57.9637 -57.9582 -57.9562 -57.9560
   -57.9505 -57.9493 -57.9480 -57.9448 -57.9442 -57.9391 -57.9372 -57.9363
   -57.9360 -57.9336 -57.9297 -57.9293 -57.9280 -57.9265 -57.9186 -57.9176
   -57.9119 -57.9103 -57.9093 -57.9075 -57.9006 -57.9005 -57.8971 -57.8959
   -57.8950 -57.8939 -57.8929 -57.8916 -57.8907 -57.8884 -57.8869 -57.8829
   -57.8818 -57.8809 -57.8791 -57.8759 -57.8718 -57.8707 -57.8700 -57.8688
   -57.8641 -57.8633 -57.8627 -57.8585 -57.8571 -57.8565 -57.8543 -57.8490
   -57.8486 -57.8477 -57.8448 -57.8446 -57.8419 -57.8408 -57.8388 -57.8387
   -57.8378 -57.8367 -57.8337 -57.8325 -57.8316 -57.8312 -57.8309 -57.8296
   -57.8277 -57.8243 -57.8218 -57.8205 -57.8171 -57.8129 -57.8128 -57.8120
   -57.8106 -57.8083 -57.8078 -57.8065 -57.8059 -57.8053 -57.8051 -57.8033
   -57.8023 -57.8022 -57.8016 -57.8009 -57.7996 -57.7977 -57.7965 -57.7953
   -57.7923 -57.7909 -57.7907 -57.7894 -57.7890 -57.7837 -57.7831 -57.7830
   -57.7818 -57.7799 -57.7788 -57.7787 -57.7767 -57.7750 -57.7728 -57.7723
   -22.9839 -14.5009 -13.8648 -13.8301 -13.3171 -13.2926 -12.8903 -12.5967
   -12.1746 -12.0894 -11.7777 -11.6602 -11.6293 -11.2640 -11.2184 -11.1845
   -11.1466 -10.7945 -10.5952 -10.4236 -10.4143 -10.4020 -10.3826 -10.3700
   -10.3328 -10.2994 -10.2795 -10.2747 -10.2368 -10.2291 -10.0078  -9.8779
    -9.8540  -9.8456  -9.8447  -9.8042  -9.7476  -9.6523  -9.5571  -9.3958
    -9.3754  -9.3720  -9.3413  -9.3382  -9.3092  -9.2890  -9.2472  -9.2348
    -9.2305  -9.1730  -9.1312  -9.1034  -9.0963  -9.0742  -9.0520  -9.0187
    -8.9797  -8.8368  -8.8293  -8.8080  -8.7968  -8.7852  -8.7471  -8.5754
    -8.5439  -8.5208  -8.5081  -8.4908  -8.4786  -8.3968  -8.3775  -8.3569
    -8.3310  -8.3132  -8.2927  -8.2821  -8.2801  -8.2703  -8.2542  -8.2540
    -8.2354  -8.2219  -8.2181  -8.1783  -8.1739  -8.1650  -8.1632  -8.1521
    -8.1443  -8.1263  -8.1128  -8.0666  -8.0392  -8.0221  -7.9445  -7.9365
    -7.9275  -7.8690  -7.8237  -7.8085  -7.8043  -7.8026  -7.7946  -7.7848
    -7.7723  -7.7661  -7.7596  -7.7590  -7.7339  -7.7323  -7.7253  -7.7221
    -7.7160  -7.7069  -7.6952  -7.6874  -7.6857  -7.6811  -7.6690  -7.6636
    -7.6608  -7.6555  -7.6487  -7.6406  -7.6289  -7.6279  -7.6191  -7.6069
    -7.5927  -7.5741  -7.5729  -7.5677  -7.5675  -7.5544  -7.5479  -7.5394
    -7.5387  -7.5377  -7.5076  -7.5048  -7.4998  -7.4492  -7.4312  -7.3767
    -7.3347  -7.3062  -7.2887  -7.2757  -7.2744  -7.2722  -7.2558  -7.2484
    -7.2393  -7.2246  -7.1664  -7.1631  -7.1263  -7.1163  -7.1140  -7.1034
    -7.0911  -7.0812  -7.0727  -7.0434  -7.0322  -7.0302  -7.0057  -6.9872
    -6.8924  -6.8641  -6.8423  -6.8253  -6.8041  -6.7936  -6.7809  -6.7780
    -6.7713  -6.7602  -6.7480  -6.7326  -6.7188  -6.7118  -6.6819  -6.6658
    -6.6604  -6.6558  -6.6556  -6.6207  -6.5988  -6.4370  -6.3870  -6.3739
    -6.3634  -6.2591  -6.2576  -6.2262  -6.0973  -6.0510  -6.0031  -5.9892
    -5.9670  -5.9297  -5.9149  -5.9053  -5.8970  -5.8735  -5.8655  -5.8370
    -5.8250  -5.8143  -5.8059  -5.7622  -5.7384  -5.7106  -5.6995  -5.6899
    -5.6849  -5.6735  -5.6613  -5.6245  -5.6120  -5.6069  -5.5795  -5.5301
[...]
    -5.2042  -5.1882  -5.1831  -5.1806  -5.1393  -5.1355  -5.1026  -5.0928
    -5.0791  -5.0663  -5.0639  -5.0609  -5.0595  -5.0467  -5.0342  -5.0301
    -5.0138  -5.0080  -5.0034  -4.9960  -4.9947  -4.9837  -4.9814  -4.9766
    -4.9680  -4.9556  -4.9412  -4.9384  -4.9347  -4.9275  -4.9250  -4.9184
    -4.9103  -4.9012  -4.8960  -4.8893  -4.8873  -4.8852  -4.8789  -4.8779
    -4.8754  -4.8619  -4.8501  -4.8486  -4.8374  -4.8222  -4.8195  -4.8152
    -4.8126  -4.8051  -4.7976  -4.7969  -4.7917  -4.7693  -4.7632  -4.7575
    -4.7230  -4.7054  -4.6996  -4.6916  -4.6821  -4.6722  -4.6716  -4.6602
    -4.6567  -4.6563  -4.6372  -4.6255  -4.6247  -4.6180  -4.6177  -4.6107
    -4.6041  -4.6018  -4.5970  -4.5925  -4.5879  -4.5840  -4.5800  -4.5646
    -4.5586  -4.5505  -4.5474  -4.5430  -4.5403  -4.5334  -4.5210  -4.5199
    -4.5172  -4.5107  -4.5016  -4.4863  -4.4564  -4.4352  -4.4348  -4.4176
    -4.4164  -4.3928  -4.3430  -4.3271  -4.2227  -4.2034  -4.2012  -4.1883
    -4.0730  -4.0111  -3.9985  -3.9849  -3.9782  -3.9679  -3.9378  -3.9171
    -3.9167  -3.9029  -3.8886

     the Fermi energy is    -6.7362 ev

!    total energy              =  -21094.98569696 Ry
     Harris-Foulkes estimate   =  -21094.98569780 Ry
     estimated scf accuracy    <          4.9E-11 Ry

     The total energy is the sum of the following terms:

     one-electron contribution = -745073.57037398 Ry
     hartree contribution      =  372276.86863789 Ry
     xc contribution           =   -2234.98870561 Ry
     ewald contribution        =  358811.55006263 Ry
     Dispersion Correction     =      -1.39941478 Ry
     one-center paw contrib.   =   -4873.44770817 Ry
     smearing contrib. (-TS)   =       0.00180508 Ry

     total magnetization       =   160.54 Bohr mag/cell
     absolute magnetization    =   167.38 Bohr mag/cell

     convergence has been achieved in  17 iterations

     negative rho (up, down):  2.469E-02 1.985E-02

     Forces acting on atoms (cartesian axes, Ry/au):

     atom    1 type  1   force =     0.00064844   -0.00030040    0.00883592
     atom    2 type  1   force =     0.00143530   -0.00216152   -0.01346871
     atom    3 type  1   force =    -0.00052244   -0.00031527    0.00893430
     atom    4 type  1   force =     0.00077608    0.00087076   -0.00818909
     atom    5 type  1   force =    -0.00001422    0.00001255    0.00002300
     atom    6 type  1   force =    -0.00007008    0.00003397   -0.00003167
     atom    7 type  1   force =    -0.00000157   -0.00000080   -0.00004953
     atom    8 type  1   force =    -0.00003232   -0.00001627    0.00005901
     atom    9 type  1   force =     0.00000995    0.00000240    0.00953892
     atom   10 type  1   force =    -0.00017905   -0.00012258    0.00882463
     atom   11 type  1   force =    -0.00022248    0.00144373   -0.00729519
     atom   12 type  1   force =     0.00086532    0.00069107   -0.01151011
     atom   13 type  1   force =    -0.00001086   -0.00001563    0.00007826
     atom   14 type  1   force =    -0.00002515   -0.00002884   -0.00001585
     atom   15 type  1   force =    -0.00003599   -0.00001532    0.00008426
     atom   16 type  1   force =     0.00006605    0.00001824   -0.00009999
     atom   17 type  1   force =    -0.00045263   -0.00039763    0.00890431
     atom   18 type  1   force =     0.00107606    0.00051000   -0.00816212
     atom   19 type  1   force =     0.00050840    0.00034836    0.00905216
     atom   20 type  1   force =     0.00038414   -0.00078801   -0.01092116
     atom   21 type  1   force =     0.00001042   -0.00000679   -0.00004720
     atom   22 type  1   force =     0.00000117   -0.00004137    0.00005538
     atom   23 type  1   force =     0.00000306   -0.00001522   -0.00003091
     atom   24 type  1   force =     0.00004969   -0.00007905   -0.00005214
     atom   25 type  1   force =    -0.00002464   -0.00005258    0.00698319
     atom   26 type  1   force =    -0.00060959    0.00075956    0.00988635
     atom   27 type  1   force =    -0.00009863   -0.00009455   -0.00624429
     atom   28 type  1   force =    -0.00112927    0.00071877   -0.00671616
     atom   29 type  1   force =     0.00001306    0.00000770   -0.00012877
     atom   30 type  1   force =    -0.00000197   -0.00000002   -0.00001053
     atom   31 type  1   force =    -0.00010523   -0.00007841    0.00001697
     atom   32 type  1   force =     0.00002559    0.00002792    0.00004715
     atom   33 type  1   force =    -0.00047011    0.00027798    0.00865625
     atom   34 type  1   force =    -0.00060255   -0.00075183   -0.00828757
     atom   35 type  1   force =    -0.00005183    0.00068873    0.00883444
     atom   36 type  1   force =    -0.00166460    0.00221079   -0.01342763
     atom   37 type  1   force =     0.00000665   -0.00000081    0.00004760
     atom   38 type  1   force =     0.00000357   -0.00004314    0.00008276
     atom   39 type  1   force =     0.00002135   -0.00002920    0.00002135
     atom   40 type  1   force =     0.00001728   -0.00009744   -0.00002418
     atom   41 type  1   force =     0.00011197    0.00004532    0.00803287
     atom   42 type  1   force =     0.00052416   -0.00081357    0.00996152
     atom   43 type  1   force =    -0.00122908   -0.00075952   -0.01105159
     atom   44 type  1   force =     0.00027285   -0.00127140   -0.00668850
     atom   45 type  1   force =    -0.00000121   -0.00001393   -0.00001047
     atom   46 type  1   force =     0.00000662   -0.00001549   -0.00001942
     atom   47 type  1   force =     0.00004480    0.00001383    0.00004507
     atom   48 type  1   force =     0.00004268   -0.00001763    0.00004331
     atom   49 type  1   force =     0.00051571    0.00033308    0.00911552
     atom   50 type  1   force =    -0.00056897    0.00055049   -0.01088698
     atom   51 type  1   force =     0.00012117   -0.00054357    0.00867253
     atom   52 type  1   force =    -0.00093236   -0.00024403   -0.00828281
     atom   53 type  1   force =    -0.00000635    0.00000111   -0.00003230
     atom   54 type  1   force =    -0.00005268    0.00006669   -0.00004852
     atom   55 type  1   force =     0.00001693   -0.00000141    0.00004730
     atom   56 type  1   force =    -0.00002068    0.00000574    0.00008089
     atom   57 type  1   force =    -0.00004306    0.00000210    0.00953280
     atom   58 type  1   force =    -0.00005131   -0.00001690    0.00900129
     atom   59 type  1   force =     0.00125018   -0.00064714   -0.00723950
     atom   60 type  1   force =     0.00026743    0.00017216   -0.00621156
     atom   61 type  1   force =     0.00000302   -0.00001698    0.00007773
     atom   62 type  1   force =     0.00002061    0.00000385    0.00000668
     atom   63 type  1   force =    -0.00000605   -0.00004425    0.00008059
     atom   64 type  1   force =     0.00009935    0.00006130   -0.00000287
     atom   65 type  2   force =    -0.00000813   -0.00001581   -0.00009831
     atom   66 type  3   force =    -0.00000151   -0.00001638    0.00030047
     atom   67 type  3   force =     0.00002755    0.00001252    0.00000393

     Total force =     0.000536     Total SCF correction =     0.000018

     bfgs converged in   6 scf cycles and   5 bfgs steps
     (criteria: energy <  7.3E-07 Ry, force <  3.9E-04 Ry/Bohr)

     End of BFGS Geometry Optimization

     Final energy   =  -21094.9856969586 Ry
Begin final coordinates

ATOMIC_POSITIONS (angstrom)
Fe       1.654912953   1.170200133   0.000000000    0   0   0
Fe       0.000000000   0.000000000   2.026984232    0   0   0
Fe       4.964738858   3.510600399   0.000000000    0   0   0
Fe       3.309825906   2.340400266   2.026984232    0   0   0
Fe       1.676423441   1.169823445   4.024173452
Fe       3.320734805   9.355968160   6.001585510
Fe       4.976376455   3.524778554   4.042600490
Fe       3.369643760   2.333788631   6.009558196
Fe       2.482363858   3.510600399   0.000000000    0   0   0
Fe       4.137287953   1.170200133   0.000000000    0   0   0
Fe       0.827450906   2.340400266   2.026984232    0   0   0
Fe       2.482375000   0.000000000   2.026984232    0   0   0
Fe       2.482951271   3.509956537   4.041038625
Fe       4.161576142   1.187837356   4.033418783
Fe       0.863557504   2.321465608   5.999303945
Fe       2.496082450   0.010359964   6.010568942
Fe       6.619662953   1.170200133   0.000000000    0   0   0
Fe       4.964750000   0.000000000   2.026984232    0   0   0
Fe       9.929488858   3.510600399   0.000000000    0   0   0
Fe       8.274575906   2.340400266   2.026984232    0   0   0
Fe       6.636521692   1.176806932   4.042319942
Fe       4.977946306   0.059222505   6.009802758
Fe       9.917399483   3.495596118   4.040271542
Fe       8.364438234   2.213594311   5.984960287
Fe       7.447113858   3.510600399   0.000000000    0   0   0
Fe       9.102037953   1.170200133   0.000000000    0   0   0
Fe       5.792200906   2.340400266   2.026984232    0   0   0
Fe       7.447125000   0.000000000   2.026984232    0   0   0
Fe       7.446661140   3.510271572   4.000956424
Fe       9.120561431   1.142220637   4.012876760
Fe       5.887758762   2.408150820   6.049814854
Fe      10.770263006   9.323475854   5.999459258
Fe       3.309814764   5.851000664   0.000000000    0   0   0
Fe       1.654901811   4.680800531   2.026984232    0   0   0
Fe       6.619640670   8.191400930   0.000000000    0   0   0
Fe       4.964727717   7.021200797   2.026984232    0   0   0
Fe       3.289121121   5.851648860   4.027445487
Fe      11.525785072   4.679731205   6.005822438
Fe       6.626356752   8.212163618   4.024378007
Fe       4.962899446   7.034151740   6.001159520
Fe       4.137265670   8.191400930   0.000000000    0   0   0
Fe       5.792189764   5.851000664   0.000000000    0   0   0
Fe      12.411852717   7.021200797   2.026984232    0   0   0
Fe       4.137276811   4.680800531   2.026984232    0   0   0
Fe       4.136141752   8.191016839   4.015424090
Fe       5.771951760   5.877975758   4.012935757
Fe      12.386474124   7.003612651   6.013152005
Fe       4.105485577   4.706942885   6.000158492
Fe       8.274564764   5.851000664   0.000000000    0   0   0
Fe       6.619651811   4.680800531   2.026984232    0   0   0
Fe      11.584390670   8.191400930   0.000000000    0   0   0
Fe       9.929477717   7.021200797   2.026984232    0   0   0
Fe       8.256206859   5.844979294   4.040540988
Fe       6.529944530   4.808217310   5.984920770
Fe      11.577927796   8.171897344   4.027350313
Fe       9.908786055   6.966478275   6.005837295
Fe       9.102015670   8.191400930   0.000000000    0   0   0
Fe      10.756939764   5.851000664   0.000000000    0   0   0
Fe       7.447102717   7.021200797   2.026984232    0   0   0
Fe       9.102026811   4.680800531   2.026984232    0   0   0
Fe       9.101448726   8.192648340   4.041160035
Fe      10.732039797   5.833752897   4.031287322
Fe       7.441025308   7.062236761   5.999943315
Fe       9.008858120   4.614959448   6.049042617
N        7.448111054   3.511604843   6.997415985
H        7.449649892   3.512910324   8.026751116
H        4.561141570   8.491549484   6.939480778
End final coordinates

     Writing output data file Fe_NH_H_paper_480c_ESM_pn25.save/

     General routines

     Parallel routines

   This run was terminated on:  14:38:18  13Jun2022

   JOB DONE.