     Program PWSCF v.6.7MaX starts on 16Jun2022 at 19:29:11

     K-points division:     npool     =       8
     R & G space division:  proc/nbgrp/npool/nimage =      32
     Waiting for input...
     Reading input from standard input
Warning: card &CELL ignored
Warning: card / ignored

     Current dimensions of program PWSCF are:
     Max number of different atomic species (ntypx) = 10
     Max number of k-points (npk) =  40000
     Max angular momentum in pseudopotentials (lmaxx) =  3
     file Fe.pbe-spn-kjpaw_psl.0.2.1.UPF: wavefunction(s)  3D renormalized

     IMPORTANT: XC functional enforced from input :
     Exchange-correlation= PBE
                           (   1   4   3   4   0   0   0)
     Any further DFT definition will be discarded
     Please, verify this is what you really want

     Parameters for Dispersion (Grimme-D2) Correction:
       atom      VdW radius       C_6

        Fe         2.952        374.666
        N          2.640         42.670
        H          1.892          4.857

     bravais-lattice index     =            0
     lattice parameter (alat)  =      18.7640  a.u.
     unit-cell volume          =   16360.3161 (a.u.)^3
     number of atoms/cell      =           66
     number of atomic types    =            3
     number of electrons       =      1030.00
     number of Kohn-Sham states=          618
     kinetic-energy cutoff     =      60.0000  Ry
     charge density cutoff     =     480.0000  Ry
     scf convergence threshold =      1.0E-08
     mixing beta               =       0.2000
     number of iterations used =           10  local-TF  mixing
     energy convergence thresh.=      7.3E-07
     force convergence thresh. =      3.9E-04
     Exchange-correlation= PBE
                           (   1   4   3   4   0   0   0)
     nstep                     =           50

     Effective Screening Medium Method
     Boundary Conditions: Metal-Slab-Metal
     field strength                   =     0.02 Ry/a.u.
     grid points for fit at edges     =        4

     celldm(1)=  18.764036  celldm(2)=   0.000000  celldm(3)=   0.000000
     celldm(4)=   0.000000  celldm(5)=   0.000000  celldm(6)=   0.000000

     crystal axes: (cart. coord. in units of alat)
               a(1) = (   1.000000   0.000000   0.000000 )
               a(2) = (   0.333330   0.942807   0.000000 )
               a(3) = (   0.000000   0.000000   2.626577 )

     reciprocal axes: (cart. coord. in units 2 pi/alat)
               b(1) = (  1.000000 -0.353551  0.000000 )
               b(2) = (  0.000000  1.060663  0.000000 )
               b(3) = (  0.000000  0.000000  0.380724 )

     PseudoPot. # 1 for Fe read from file:
     ../../SSSP/Fe.pbe-spn-kjpaw_psl.0.2.1.UPF
     MD5 check sum: e86618425769142926afa95317d90200
     Pseudo is Projector augmented-wave + core cor, Zval = 16.0
     Generated using "atomic" code by A. Dal Corso  v.5.0.99 svn rev. 10869
     Shape of augmentation charge: PSQ
     Using radial grid of 1191 points,  6 beta functions with:
                l(1) =   0
                l(2) =   0
                l(3) =   1
                l(4) =   1
                l(5) =   2
                l(6) =   2
     Q(r) pseudized with 0 coefficients

     PseudoPot. # 2 for N  read from file:
     ../../SSSP/N.pbe-n-radius_5.UPF
     MD5 check sum: 16739722b17309cd8fe442a2ace49922
     Pseudo is Ultrasoft + core correction, Zval =  5.0
     Generated using "atomic" code by A. Dal Corso  v.5.1
     Using radial grid of 1085 points,  4 beta functions with:
                l(1) =   0
                l(2) =   0
                l(3) =   1
                l(4) =   1
     Q(r) pseudized with 0 coefficients

     PseudoPot. # 3 for H  read from file:
     ../../SSSP/H.pbe-rrkjus_psl.1.0.0.UPF
     MD5 check sum: f52b6d4d1c606e5624b1dc7b2218f220
     Pseudo is Ultrasoft, Zval =  1.0
     Generated using "atomic" code by A. Dal Corso  v.5.1
     Using radial grid of  929 points,  2 beta functions with:
                l(1) =   0
                l(2) =   0
     Q(r) pseudized with 0 coefficients

     atomic species   valence    mass     pseudopotential
        Fe            16.00    55.84500     Fe( 1.00)
        N              5.00    14.00700     N ( 1.00)
        H              1.00     1.00800     H ( 1.00)

     Starting magnetic structure
     atomic species   magnetization
        Fe           0.100
        N            0.100
        H            0.100

     No symmetry found

   Cartesian axes

     site n.     atom                  positions (alat units)
         1           Fe  tau(   1) = (   0.1666663   0.1178509   0.0000000  )
         2           Fe  tau(   2) = (   0.0000000   0.0000000   0.2041376  )
         3           Fe  tau(   3) = (   0.4999989   0.3535526   0.0000000  )
         4           Fe  tau(   4) = (   0.3333326   0.2357017   0.2041376  )
         5           Fe  tau(   5) = (   0.1692309   0.1174836   0.4055241  )
         6           Fe  tau(   6) = (   0.3358430   0.9392619   0.6065572  )
         7           Fe  tau(   7) = (   0.4994978   0.3560176   0.4072674  )
         8           Fe  tau(   8) = (   0.3419286   0.2351907   0.6069021  )
         9           Fe  tau(   9) = (   0.2499989   0.3535526   0.0000000  )
        10           Fe  tau(  10) = (   0.4166663   0.1178509   0.0000000  )
        11           Fe  tau(  11) = (   0.0833326   0.2357017   0.2041376  )
        12           Fe  tau(  12) = (   0.2500000   0.0000000   0.2041376  )
        13           Fe  tau(  13) = (   0.2500452   0.3534538   0.4077446  )
        14           Fe  tau(  14) = (   0.4190567   0.1195660   0.4061143  )
        15           Fe  tau(  15) = (   0.0922598   0.2320729   0.6067819  )
        16           Fe  tau(  16) = (   0.2529537   0.0020846   0.6064834  )
        17           Fe  tau(  17) = (   0.6666663   0.1178509   0.0000000  )
        18           Fe  tau(  18) = (   0.5000000   0.0000000   0.2041376  )
        19           Fe  tau(  19) = (   0.9999989   0.3535526   0.0000000  )
        20           Fe  tau(  20) = (   0.8333326   0.2357017   0.2041376  )
        21           Fe  tau(  21) = (   0.6687947   0.1165307   0.4072326  )
        22           Fe  tau(  22) = (   0.5023735   0.0082670   0.6069204  )
        23           Fe  tau(  23) = (   1.0003151   0.3509709   0.4069601  )
        24           Fe  tau(  24) = (   0.8517145   0.2096852   0.6029056  )
        25           Fe  tau(  25) = (   0.7499989   0.3535526   0.0000000  )
        26           Fe  tau(  26) = (   0.9166663   0.1178509   0.0000000  )
        27           Fe  tau(  27) = (   0.5833326   0.2357017   0.2041376  )
        28           Fe  tau(  28) = (   0.7500000   0.0000000   0.2041376  )
        29           Fe  tau(  29) = (   0.7499020   0.3534409   0.4088301  )
        30           Fe  tau(  30) = (   0.9195851   0.1134197   0.4032914  )
        31           Fe  tau(  31) = (   0.5924423   0.2420789   0.6050697  )
        32           Fe  tau(  32) = (   1.0846088   0.9332379   0.6074062  )
        33           Fe  tau(  33) = (   0.3333315   0.5892543   0.0000000  )
        34           Fe  tau(  34) = (   0.1666652   0.4714034   0.2041376  )
        35           Fe  tau(  35) = (   0.6666640   0.8249560   0.0000000  )
        36           Fe  tau(  36) = (   0.4999978   0.7071052   0.2041376  )
        37           Fe  tau(  37) = (   0.3307324   0.5895106   0.4058920  )
        38           Fe  tau(  38) = (   1.1584047   0.4709276   0.6065009  )
        39           Fe  tau(  39) = (   0.6671769   0.8274891   0.4055425  )
        40           Fe  tau(  40) = (   0.4974926   0.7106378   0.6065960  )
        41           Fe  tau(  41) = (   0.4166640   0.8249560   0.0000000  )
        42           Fe  tau(  42) = (   0.5833315   0.5892543   0.0000000  )
        43           Fe  tau(  43) = (   0.2499978   0.7071052   0.2041376  )
        44           Fe  tau(  44) = (   0.4166652   0.4714034   0.2041376  )
        45           Fe  tau(  45) = (   0.4165103   0.8248470   0.4041333  )
        46           Fe  tau(  46) = (   0.5801172   0.5934896   0.4033157  )
        47           Fe  tau(  47) = (   1.2456829   0.7040520   0.6068983  )
        48           Fe  tau(  48) = (   0.4080929   0.4758174   0.6074594  )
        49           Fe  tau(  49) = (   0.8333315   0.5892543   0.0000000  )
        50           Fe  tau(  50) = (   0.6666652   0.4714034   0.2041376  )
        51           Fe  tau(  51) = (   1.1666640   0.8249560   0.0000000  )
        52           Fe  tau(  52) = (   0.9999978   0.7071052   0.2041376  )
        53           Fe  tau(  53) = (   0.8309700   0.5903883   0.4069933  )
        54           Fe  tau(  54) = (   0.6482997   0.4973457   0.6029042  )
        55           Fe  tau(  55) = (   1.1660452   0.8224115   0.4058740  )
        56           Fe  tau(  56) = (   0.9967589   0.6994986   0.6064705  )
        57           Fe  tau(  57) = (   0.9166640   0.8249560   0.0000000  )
        58           Fe  tau(  58) = (   1.0833315   0.5892543   0.0000000  )
        59           Fe  tau(  59) = (   0.7499978   0.7071052   0.2041376  )
        60           Fe  tau(  60) = (   0.9166652   0.4714034   0.2041376  )
        61           Fe  tau(  61) = (   0.9165754   0.8250215   0.4077364  )
        62           Fe  tau(  62) = (   1.0807259   0.5874363   0.4059540  )
        63           Fe  tau(  63) = (   0.7494962   0.7167127   0.6068311  )
        64           Fe  tau(  64) = (   0.9077209   0.4650257   0.6049361  )
        65           N   tau(  65) = (   0.7501081   0.3535878   0.6396766  )
        66           H   tau(  66) = (   0.4633179   0.8579521   0.7025783  )

     number of k points=    10  Methfessel-Paxton smearing, width (Ry)=  0.0100
                       cart. coord. in units 2pi/alat
        k(    1) = (   0.0000000   0.0000000   0.0000000), wk =   0.0625000
        k(    2) = (   0.0000000   0.2651656   0.0000000), wk =   0.1250000
        k(    3) = (   0.0000000  -0.5303313   0.0000000), wk =   0.0625000
        k(    4) = (   0.2500000  -0.0883878   0.0000000), wk =   0.1250000
        k(    5) = (   0.2500000   0.1767779   0.0000000), wk =   0.1250000
        k(    6) = (   0.2500000  -0.6187190   0.0000000), wk =   0.1250000
        k(    7) = (   0.2500000  -0.3535534   0.0000000), wk =   0.1250000
        k(    8) = (  -0.5000000   0.1767755   0.0000000), wk =   0.0625000
        k(    9) = (  -0.5000000   0.4419412   0.0000000), wk =   0.1250000
        k(   10) = (  -0.5000000  -0.3535558   0.0000000), wk =   0.0625000

     Check: negative core charge=   -0.000039
     Generating pointlists ...
     new r_m :   0.0737 (alat units)  1.3827 (a.u.) for type    1
     new r_m :   0.0742 (alat units)  1.3929 (a.u.) for type    2
     new r_m :   0.0737 (alat units)  1.3827 (a.u.) for type    3

     Initial potential from superposition of free atoms

     starting charge 1029.97193, renormalised to 1030.00000

     negative rho (up, down):  1.363E-02 1.115E-02
     Starting wfcs are  837 randomized atomic wfcs
     Checking if some PAW data can be deallocated...

     Self-consistent Calculation

[...]
   -85.9070 -85.9056 -85.9039 -85.8966 -85.8945 -85.8934 -85.8870 -85.8868
   -85.8856 -85.8848 -85.8838 -85.8830 -85.8819 -85.8798 -85.8791 -85.8762
   -85.8703 -85.8640 -85.8639 -85.8620 -85.8618 -85.8595 -85.8593 -85.8584
   -85.8561 -85.8556 -85.8556 -85.8524 -85.8403 -85.8373 -85.8354 -85.8338
   -53.1788 -53.1707 -52.6407 -52.6285 -52.5667 -52.5562 -52.5275 -52.5226
   -52.3492 -52.3276 -52.3027 -52.2995 -52.2994 -52.2937 -52.2922 -52.2856
   -52.2617 -52.2598 -52.2485 -52.2468 -52.2456 -52.2386 -52.2284 -52.2266
   -52.2201 -52.2192 -52.2158 -52.2132 -52.2127 -52.2049 -52.2043 -52.2035
   -52.2013 -52.1999 -52.1944 -52.1890 -52.1888 -52.1813 -52.1800 -52.1777
   -52.1767 -52.1754 -52.1699 -52.1667 -52.1660 -52.1623 -52.1609 -52.1593
   -52.1585 -52.1544 -52.1504 -52.1460 -52.1422 -52.1380 -52.1368 -52.1368
   -52.1351 -52.1314 -52.1308 -52.1306 -52.1294 -52.1279 -52.1279 -52.1252
   -52.1237 -52.1223 -52.1217 -52.1200 -52.1180 -52.1132 -52.1099 -52.1084
   -52.1066 -52.1038 -52.0979 -52.0897 -52.0826 -52.0807 -52.0771 -52.0744
   -52.0681 -52.0678 -52.0616 -52.0596 -52.0570 -52.0569 -52.0409 -52.0396
   -52.0387 -52.0357 -52.0355 -52.0311 -52.0300 -52.0242 -52.0228 -52.0225
   -52.0200 -52.0156 -52.0122 -52.0109 -52.0086 -52.0065 -52.0042 -52.0015
   -52.0013 -51.9984 -51.9966 -51.9896 -51.9869 -51.9863 -51.9862 -51.9846
   -51.9823 -51.9809 -51.9800 -51.9779 -51.9776 -51.9771 -51.9739 -51.9721
   -51.9684 -51.9656 -51.9636 -51.9624 -51.9576 -51.9544 -51.9525 -51.9513
   -51.9493 -51.9486 -51.9450 -51.9432 -51.9430 -51.9414 -51.9365 -51.9349
   -51.9308 -51.9288 -51.9286 -51.9241 -51.9234 -51.9232 -51.9225 -51.9217
   -51.9205 -51.9202 -51.9188 -51.9162 -51.9147 -51.9144 -51.9133 -51.9127
   -51.9117 -51.9097 -51.9076 -51.9069 -51.9052 -51.9043 -51.9025 -51.9019
   -51.8974 -51.8965 -51.8963 -51.8943 -51.8917 -51.8907 -51.8892 -51.8891
   -51.8880 -51.8874 -51.8873 -51.8869 -51.8841 -51.8827 -51.8826 -51.8820
   -51.8792 -51.8790 -51.8756 -51.8741 -51.8728 -51.8702 -51.8699 -51.8677
   -51.8667 -51.8648 -51.8631 -51.8610 -51.8578 -51.8571 -51.8536 -51.8513
   -16.5481  -8.0064  -7.9577  -7.4567  -7.4514  -7.0328  -6.9879  -6.8433
    -6.4601  -6.3304  -5.9684  -5.8661  -5.7636  -5.3543  -5.3007  -5.2861
    -5.1461  -4.9154  -4.6757  -4.5192  -4.5014  -4.4857  -4.4730  -4.4683
    -4.4021  -4.3962  -4.3666  -4.3203  -4.3053  -4.2312  -4.0656  -3.9470
    -3.9427  -3.9362  -3.9185  -3.8684  -3.8259  -3.7459  -3.5728  -3.4866
    -3.4816  -3.4726  -3.4401  -3.4283  -3.4131  -3.3748  -3.3445  -3.3136
    -3.3000  -3.2467  -3.1833  -3.1787  -3.1580  -3.1410  -3.1331  -3.1277
    -2.9468  -2.9349  -2.9103  -2.9088  -2.8847  -2.8532  -2.8148  -2.6862
    -2.6398  -2.6215  -2.6197  -2.5764  -2.5676  -2.5670  -2.4949  -2.4537
    -2.4383  -2.4193  -2.3889  -2.3817  -2.3690  -2.3530  -2.3478  -2.3359
    -2.3241  -2.3132  -2.2706  -2.2474  -2.2470  -2.2424  -2.2373  -2.2332
    -2.2075  -2.2022  -2.2017  -2.1676  -2.1593  -2.0626  -2.0311  -2.0305
    -2.0270  -2.0205  -1.9527  -1.9279  -1.9045  -1.8972  -1.8896  -1.8845
    -1.8708  -1.8657  -1.8654  -1.8564  -1.8177  -1.8055  -1.8039  -1.7979
    -1.7950  -1.7891  -1.7882  -1.7741  -1.7730  -1.7606  -1.7554  -1.7522
    -1.7421  -1.7323  -1.7204  -1.7194  -1.7141  -1.7140  -1.7022  -1.6931
    -1.6832  -1.6719  -1.6518  -1.6514  -1.6438  -1.6419  -1.6378  -1.6318
    -1.6206  -1.6153  -1.5983  -1.5950  -1.5548  -1.4737  -1.4360  -1.4229
    -1.4163  -1.4021  -1.3972  -1.3852  -1.3823  -1.3663  -1.3647  -1.3546
    -1.3462  -1.2873  -1.2426  -1.2310  -1.2124  -1.2087  -1.2073  -1.1907
    -1.1550  -1.1543  -1.1529  -1.1450  -1.1306  -1.1045  -1.0869  -1.0517
    -1.0421  -1.0041  -0.9916  -0.9333  -0.9187  -0.9139  -0.8738  -0.8587
    -0.8369  -0.8209  -0.8095  -0.7655  -0.7523  -0.7443  -0.7399  -0.7332
    -0.7288  -0.7159  -0.6997  -0.6973  -0.6541  -0.5198  -0.5027  -0.4905
    -0.3939  -0.3488  -0.3454  -0.2363  -0.2136  -0.1680  -0.1555  -0.1085
    -0.0819  -0.0792  -0.0700  -0.0338  -0.0001   0.0239   0.0290   0.0490
     0.0639   0.0901   0.1233   0.1504   0.1692   0.1707   0.1732   0.1944
     0.2600   0.2765   0.2830   0.2866   0.2906   0.3129   0.3582   0.3689
[...]
     0.7237   0.7589   0.7592   0.7710   0.7746   0.7852   0.8133   0.8236
     0.8248   0.8421   0.8437   0.8512   0.8781   0.8802   0.8858   0.8996
     0.9013   0.9131   0.9156   0.9266   0.9303   0.9337   0.9509   0.9531
     0.9555   0.9840   0.9874   0.9895   0.9983   1.0075   1.0145   1.0168
     1.0173   1.0233   1.0285   1.0360   1.0523   1.0559   1.0660   1.0670
     1.0754   1.0920   1.0962   1.0988   1.1021   1.1077   1.1170   1.1180
     1.1185   1.1427   1.1526   1.1591   1.1656   1.1893   1.1981   1.2011
     1.2209   1.2238   1.2253   1.2340   1.2379   1.2477   1.2520   1.2848
     1.2855   1.2935   1.2943   1.3053   1.3091   1.3177   1.3187   1.3313
     1.3332   1.3343   1.3344   1.3408   1.3430   1.3492   1.3707   1.3752
     1.3824   1.3905   1.3938   1.4083   1.4174   1.4202   1.4462   1.4499
     1.4628   1.4664   1.4708   1.4968   1.5003   1.5100   1.5309   1.5825
     1.6644   1.7163   1.7197   1.7383   1.8333   1.8960   1.9182   1.9253
     1.9373   1.9439   1.9635   1.9656   1.9776   1.9892   2.0081   2.0305
     2.0357   2.0769

     the Fermi energy is    -0.8228 ev

!    total energy              =  -21093.84214249 Ry
     estimated scf accuracy    <          7.5E-11 Ry
     smearing contrib. (-TS)   =       0.00348541 Ry
     internal energy E=F+TS    =  -21093.84562790 Ry

     The total energy is F=E-TS. E is the sum of the following terms:
     one-electron contribution = -743217.66911511 Ry
     hartree contribution      =  371572.34788996 Ry
     xc contribution           =   -2234.30883859 Ry
     ewald contribution        =  357660.62900393 Ry
     Dispersion Correction     =      -1.39502571 Ry
     one-center paw contrib.   =   -4873.44954238 Ry

     total magnetization       =   160.64 Bohr mag/cell
     absolute magnetization    =   167.71 Bohr mag/cell

     convergence has been achieved in  18 iterations

     negative rho (up, down):  1.167E-02 1.498E-02

     Forces acting on atoms (cartesian axes, Ry/au):

     atom    1 type  1   force =    -0.00000266    0.00073464    0.00838188
     atom    2 type  1   force =     0.00251900   -0.00380634   -0.01479274
     atom    3 type  1   force =    -0.00080159   -0.00073812    0.00815636
     atom    4 type  1   force =     0.00089515    0.00120747   -0.00793203
     atom    5 type  1   force =    -0.00001752    0.00000884   -0.00004331
     atom    6 type  1   force =     0.00001521    0.00002712    0.00005385
     atom    7 type  1   force =     0.00003947    0.00005151   -0.00006654
     atom    8 type  1   force =    -0.00002188   -0.00000555    0.00001495
     atom    9 type  1   force =     0.00001921    0.00007258    0.00762249
     atom   10 type  1   force =    -0.00067625   -0.00048938    0.00841875
     atom   11 type  1   force =     0.00093903   -0.00034783   -0.00818043
     atom   12 type  1   force =     0.00026472    0.00025644   -0.01261407
     atom   13 type  1   force =     0.00000453   -0.00000779   -0.00005087
     atom   14 type  1   force =     0.00001410    0.00000782   -0.00007090
     atom   15 type  1   force =    -0.00005277   -0.00001977    0.00007006
     atom   16 type  1   force =    -0.00001018   -0.00001000    0.00000374
     atom   17 type  1   force =    -0.00095141   -0.00045322    0.00810734
     atom   18 type  1   force =     0.00145112    0.00043316   -0.00790294
     atom   19 type  1   force =     0.00066261    0.00068124    0.00815544
     atom   20 type  1   force =    -0.00106748    0.00132987   -0.00228398
     atom   21 type  1   force =     0.00006120    0.00002510   -0.00006585
     atom   22 type  1   force =    -0.00000714   -0.00001328    0.00002874
     atom   23 type  1   force =    -0.00002807   -0.00003372   -0.00006097
     atom   24 type  1   force =     0.00000923    0.00001738   -0.00001946
     atom   25 type  1   force =     0.00007548    0.00002605    0.00724375
     atom   26 type  1   force =    -0.00101732    0.00127699    0.00794685
     atom   27 type  1   force =     0.00144685    0.00095112   -0.00342521
     atom   28 type  1   force =     0.00022634   -0.00095272   -0.00766283
     atom   29 type  1   force =     0.00001087    0.00000762   -0.00010756
     atom   30 type  1   force =     0.00003969   -0.00001977   -0.00009544
     atom   31 type  1   force =     0.00000496    0.00001336    0.00002148
     atom   32 type  1   force =     0.00010139    0.00005538    0.00001001
     atom   33 type  1   force =     0.00016753   -0.00089521    0.00826194
     atom   34 type  1   force =    -0.00074698   -0.00123795   -0.00811528
     atom   35 type  1   force =     0.00072666   -0.00024380    0.00844068
     atom   36 type  1   force =    -0.00281045    0.00372102   -0.01480336
     atom   37 type  1   force =     0.00001021    0.00002960   -0.00003971
     atom   38 type  1   force =     0.00002398   -0.00002787    0.00003887
     atom   39 type  1   force =     0.00000701   -0.00001763   -0.00004581
     atom   40 type  1   force =     0.00002613    0.00000122    0.00005230
     atom   41 type  1   force =     0.00017087    0.00008832    0.00898521
     atom   42 type  1   force =     0.00086562   -0.00138599    0.00801162
     atom   43 type  1   force =    -0.00077449   -0.00045427   -0.01226521
     atom   44 type  1   force =    -0.00086538    0.00053319   -0.00759191
     atom   45 type  1   force =     0.00000973    0.00000647   -0.00006465
     atom   46 type  1   force =    -0.00000285    0.00004482   -0.00009271
     atom   47 type  1   force =     0.00004312    0.00002891    0.00006580
     atom   48 type  1   force =     0.00008828    0.00007016    0.00001214
     atom   49 type  1   force =     0.00086214    0.00043789    0.00821845
     atom   50 type  1   force =     0.00095646   -0.00156033   -0.00230056
     atom   51 type  1   force =    -0.00074857    0.00048198    0.00824275
     atom   52 type  1   force =    -0.00141837   -0.00027998   -0.00815012
     atom   53 type  1   force =    -0.00004072   -0.00001235   -0.00006444
     atom   54 type  1   force =     0.00002108    0.00000801   -0.00002006
     atom   55 type  1   force =     0.00003395   -0.00000264   -0.00003993
     atom   56 type  1   force =    -0.00001815    0.00002635    0.00003147
     atom   57 type  1   force =     0.00007828   -0.00004572    0.00761732
     atom   58 type  1   force =     0.00050120    0.00034389    0.00840119
     atom   59 type  1   force =    -0.00001114    0.00103308   -0.00812632
     atom   60 type  1   force =    -0.00132426   -0.00097920   -0.00337805
     atom   61 type  1   force =    -0.00000638    0.00001178   -0.00004968
     atom   62 type  1   force =    -0.00000042   -0.00000236   -0.00004841
     atom   63 type  1   force =    -0.00003402   -0.00003686    0.00006894
     atom   64 type  1   force =     0.00002682    0.00001501    0.00001841
     atom   65 type  2   force =     0.00000049    0.00000238    0.00009186
     atom   66 type  3   force =     0.00003670    0.00001189    0.00020600

     Total force =     0.000457     Total SCF correction =     0.000021
     Energy error            =      4.2E-07
     Gradient error          =      2.1E-04

     bfgs converged in  12 scf cycles and  11 bfgs steps
     (criteria: energy <  7.3E-07 Ry, force <  3.9E-04 Ry/Bohr)

     End of BFGS Geometry Optimization

     Final energy   =  -21093.8421424927 Ry

     File ./Fe_N_H_paper_480c_ESM_p5.bfgs deleted, as requested
Begin final coordinates

ATOMIC_POSITIONS (angstrom)
Fe            1.6549129530        1.1702001330        0.0000000000    0   0   0
Fe            0.0000000000        0.0000000000        2.0269842320    0   0   0
Fe            4.9647388580        3.5106003990        0.0000000000    0   0   0
Fe            3.3098259060        2.3404002660        2.0269842320    0   0   0
Fe            1.6804800273        1.1665108026        4.0296148636
Fe            3.3347651270        9.3260794967        6.0301966318
Fe            4.9596497634        3.5351189997        4.0467011053
Fe            3.3966555224        2.3353030842        6.0339129347
Fe            2.4823638580        3.5106003990        0.0000000000    0   0   0
Fe            4.1372879530        1.1702001330        0.0000000000    0   0   0
Fe            0.8274509060        2.3404002660        2.0269842320    0   0   0
Fe            2.4823750000        0.0000000000        2.0269842320    0   0   0
Fe            2.4829526253        3.5096155143        4.0521699401
Fe            4.1609970738        1.1871971982        4.0353971800
Fe            0.9180911153        2.3043931671        6.0314959502
Fe            2.5136831581        0.0220992359        6.0288606654
Fe            6.6196629530        1.1702001330        0.0000000000    0   0   0
Fe            4.9647500000        0.0000000000        2.0269842320    0   0   0
Fe            9.9294888580        3.5106003990        0.0000000000    0   0   0
Fe            8.2745759060        2.3404002660        2.0269842320    0   0   0
Fe            6.6408248686        1.1569897385        4.0465528857
Fe            4.9888814673        0.0835986043        6.0342160628
Fe            9.9329312216        3.4849024872        4.0439255769
Fe            8.4572960356        2.0819907284        5.9931634357
Fe            7.4471138580        3.5106003990        0.0000000000    0   0   0
Fe            9.1020379530        1.1702001330        0.0000000000    0   0   0
Fe            5.7922009060        2.3404002660        2.0269842320    0   0   0
Fe            7.4471250000        0.0000000000        2.0269842320    0   0   0
Fe            7.4462185842        3.5095887283        4.0618562416
Fe            9.1310488797        1.1263329202        4.0085677589
Fe            5.8830282032        2.4041654924        6.0141162725
Fe           10.7692207491        9.2654039298        6.0381573297
Fe            3.3098147640        5.8510006640        0.0000000000    0   0   0
Fe            1.6549018110        4.6808005310        2.0269842320    0   0   0
Fe            6.6196406700        8.1914009300        0.0000000000    0   0   0
Fe            4.9647277170        7.0212007970        2.0269842320    0   0   0
Fe            3.2841238040        5.8536089134        4.0330646475
Fe           11.5014714604        4.6768569744        6.0293366827
Fe            6.6247290523        8.2167348986        4.0297812437
Fe            4.9397225676        7.0563439747        6.0303468278
Fe            4.1372656700        8.1914009300        0.0000000000    0   0   0
Fe            5.7921897640        5.8510006640        0.0000000000    0   0   0
Fe            2.4823527170        7.0212007970        2.0269842320    0   0   0
Fe            4.1372768110        4.6808005310        2.0269842320    0   0   0
Fe            4.1357901453        8.1904112885        4.0164214736
Fe            5.7603957102        5.8930714506        4.0086466861
Fe           12.3685709081        6.9905349281        6.0316734837
Fe            4.0508507810        4.7245286742        6.0383312293
Fe            8.2745647640        5.8510006640        0.0000000000    0   0   0
Fe            6.6196518110        4.6808005310        2.0269842320    0   0   0
Fe           11.5843906700        8.1914009300        0.0000000000    0   0   0
Fe            9.9294777170        7.0212007970        2.0269842320    0   0   0
Fe            8.2511756082        5.8625922749        4.0440982627
Fe            6.4371408176        4.9388444094        5.9929891968
Fe           11.5783352857        8.1663425186        4.0329460659
Fe            9.8979470995        6.9446885596        6.0291160463
Fe            9.1020156700        8.1914009300        0.0000000000    0   0   0
Fe           10.7569397640        5.8510006640        0.0000000000    0   0   0
Fe            7.4471027170        7.0212007970        2.0269842320    0   0   0
Fe            9.1020268110        4.6808005310        2.0269842320    0   0   0
Fe            9.1011938240        8.1921889888        4.0521061424
Fe           10.7312127552        5.8330963405        4.0332629622
Fe            7.4431350595        7.1184030909        6.0316954895
Fe            9.0134488674        4.6178075296        6.0124080254
N             7.4485815397        3.5114134470        6.3594536471
H             4.6027075312        8.5205445816        6.9831594556
End final coordinates

     Writing output data file ./Fe_N_H_paper_480c_ESM_p5.save/

     General routines

     Parallel routines

   This run was terminated on:   3:53:45  17Jun2022

   JOB DONE.