     Program PWSCF v.6.8 starts on 14May2022 at  1:18:16

     Waiting for input...
     Reading input from standard input

     Current dimensions of program PWSCF are:
     Max number of different atomic species (ntypx) = 10
     Max number of k-points (npk) =  40000
     Max angular momentum in pseudopotentials (lmaxx) =  4
     file Fe.pbe-spn-kjpaw_psl.0.2.1.UPF: wavefunction(s)  3D renormalized

     IMPORTANT: XC functional enforced from input :
     Exchange-correlation= PBE
                           (   1   4   3   4   0   0   0)
     Any further DFT definition will be discarded
     Please, verify this is what you really want

     Parameters for Dispersion (Grimme-D2) Correction:
       atom      VdW radius       C_6

        Fe         2.952        374.666

     Using Slab Decomposition

     bravais-lattice index     =            3
     lattice parameter (alat)  =       5.4169  a.u.
     unit-cell volume          =      79.4740 (a.u.)^3
     number of atoms/cell      =            1
     number of atomic types    =            1
     number of electrons       =        16.00
     number of Kohn-Sham states=           12
     kinetic-energy cutoff     =      90.0000  Ry
     charge density cutoff     =     900.0000  Ry
     scf convergence threshold =      1.0E-08
     mixing beta               =       0.1000
     number of iterations used =           10  local-TF  mixing
     energy convergence thresh.=      1.0E-06
     force convergence thresh. =      1.0E-05
     press convergence thresh. =      5.0E-01
     Exchange-correlation= PBE
                           (   1   4   3   4   0   0   0)
     nstep                     =           50

     celldm(1)=   5.416911  celldm(2)=   0.000000  celldm(3)=   0.000000
     celldm(4)=   0.000000  celldm(5)=   0.000000  celldm(6)=   0.000000

     crystal axes: (cart. coord. in units of alat)
               a(1) = (   0.500000   0.500000   0.500000 )
               a(2) = (  -0.500000   0.500000   0.500000 )
               a(3) = (  -0.500000  -0.500000   0.500000 )

     reciprocal axes: (cart. coord. in units 2 pi/alat)
               b(1) = (  1.000000  0.000000  1.000000 )
               b(2) = ( -1.000000  1.000000  0.000000 )
               b(3) = (  0.000000 -1.000000  1.000000 )

     PseudoPot. # 1 for Fe read from file:
     ./SSSP/Fe.pbe-spn-kjpaw_psl.0.2.1.UPF
     MD5 check sum: e86618425769142926afa95317d90200
     Pseudo is Projector augmented-wave + core cor, Zval = 16.0
     Generated using "atomic" code by A. Dal Corso  v.5.0.99 svn rev. 10869
     Shape of augmentation charge: PSQ
     Using radial grid of 1191 points,  6 beta functions with:
                l(1) =   0
                l(2) =   0
                l(3) =   1
                l(4) =   1
                l(5) =   2
                l(6) =   2
     Q(r) pseudized with 0 coefficients

     atomic species   valence    mass     pseudopotential
        Fe            16.00    55.84500     Fe( 1.00)

     Starting magnetic structure
     atomic species   magnetization
        Fe           0.100

     48 Sym. Ops., with inversion, found

   Cartesian axes

     site n.     atom                  positions (alat units)
         1           Fe  tau(   1) = (   0.0000000   0.0000000   0.0000000  )

     number of k points=    72  Methfessel-Paxton smearing, width (Ry)=  0.0100
                       cart. coord. in units 2pi/alat
        k(    1) = (   0.0000000   0.0000000   0.0000000), wk =   0.0005787
        k(    2) = (   0.0000000  -0.0833333   0.0833333), wk =   0.0069444
        k(    3) = (   0.0000000  -0.1666667   0.1666667), wk =   0.0069444
        k(    4) = (   0.0000000  -0.2500000   0.2500000), wk =   0.0069444
        k(    5) = (   0.0000000  -0.3333333   0.3333333), wk =   0.0069444
        k(    6) = (   0.0000000  -0.4166667   0.4166667), wk =   0.0069444
        k(    7) = (   0.0000000   0.5000000  -0.5000000), wk =   0.0034722
        k(    8) = (  -0.0833333  -0.0833333   0.1666667), wk =   0.0138889
        k(    9) = (  -0.0833333  -0.1666667   0.2500000), wk =   0.0277778
        k(   10) = (  -0.0833333  -0.2500000   0.3333333), wk =   0.0277778
        k(   11) = (  -0.0833333  -0.3333333   0.4166667), wk =   0.0277778
        k(   12) = (  -0.0833333   0.5833333  -0.5000000), wk =   0.0277778
        k(   13) = (  -0.1666667  -0.1666667   0.3333333), wk =   0.0138889
        k(   14) = (  -0.1666667  -0.2500000   0.4166667), wk =   0.0277778
        k(   15) = (  -0.1666667   0.6666667  -0.5000000), wk =   0.0277778
        k(   16) = (  -0.1666667   0.5833333  -0.4166667), wk =   0.0138889
        k(   17) = (  -0.2500000   0.7500000  -0.5000000), wk =   0.0138889
        k(   18) = (  -0.2500000   0.6666667  -0.4166667), wk =   0.0277778
        k(   19) = (  -0.3333333   0.6666667  -0.3333333), wk =   0.0046296
        k(   20) = (   0.0000000   0.0000000   0.1666667), wk =   0.0034722
        k(   21) = (   0.0000000  -0.0833333   0.2500000), wk =   0.0138889
        k(   22) = (   0.0000000  -0.1666667   0.3333333), wk =   0.0138889
        k(   23) = (   0.0000000  -0.2500000   0.4166667), wk =   0.0138889
        k(   24) = (   0.0000000  -0.3333333   0.5000000), wk =   0.0138889
        k(   25) = (   0.0000000   0.5833333  -0.4166667), wk =   0.0069444
        k(   26) = (  -0.0833333  -0.0833333   0.3333333), wk =   0.0138889
        k(   27) = (  -0.0833333  -0.1666667   0.4166667), wk =   0.0277778
        k(   28) = (  -0.0833333  -0.2500000   0.5000000), wk =   0.0277778
        k(   29) = (  -0.0833333   0.6666667  -0.4166667), wk =   0.0277778
        k(   30) = (  -0.1666667   0.1666667   0.1666667), wk =   0.0046296
        k(   31) = (  -0.1666667  -0.1666667   0.5000000), wk =   0.0138889
        k(   32) = (  -0.1666667   0.7500000  -0.4166667), wk =   0.0277778
        k(   33) = (  -0.1666667   0.6666667  -0.3333333), wk =   0.0138889
        k(   34) = (  -0.2500000   0.2500000   0.1666667), wk =   0.0138889
        k(   35) = (  -0.2500000   0.7500000  -0.3333333), wk =   0.0138889
        k(   36) = (  -0.3333333   0.3333333   0.1666667), wk =   0.0138889
        k(   37) = (  -0.3333333   0.2500000   0.2500000), wk =   0.0138889
        k(   38) = (   0.5833333  -0.5833333   0.1666667), wk =   0.0138889
        k(   39) = (   0.5833333  -0.6666667   0.2500000), wk =   0.0277778
        k(   40) = (   0.5000000  -0.5000000   0.1666667), wk =   0.0069444
        k(   41) = (   0.5000000  -0.5833333   0.2500000), wk =   0.0277778
        k(   42) = (   0.5000000  -0.6666667   0.3333333), wk =   0.0138889
        k(   43) = (   0.4166667  -0.5833333   0.3333333), wk =   0.0138889
        k(   44) = (   0.0000000   0.0000000   0.3333333), wk =   0.0034722
        k(   45) = (   0.0000000  -0.0833333   0.4166667), wk =   0.0138889
        k(   46) = (   0.0000000  -0.1666667   0.5000000), wk =   0.0138889
        k(   47) = (   0.0000000  -0.2500000   0.5833333), wk =   0.0138889
        k(   48) = (   0.0000000   0.6666667  -0.3333333), wk =   0.0069444
        k(   49) = (  -0.0833333  -0.0833333   0.5000000), wk =   0.0138889
        k(   50) = (  -0.0833333  -0.1666667   0.5833333), wk =   0.0277778
        k(   51) = (  -0.0833333   0.7500000  -0.3333333), wk =   0.0277778
        k(   52) = (  -0.1666667   0.8333333  -0.3333333), wk =   0.0138889
        k(   53) = (  -0.1666667   0.7500000  -0.2500000), wk =   0.0138889
        k(   54) = (   0.6666667  -0.6666667   0.3333333), wk =   0.0046296
        k(   55) = (   0.5833333  -0.5833333   0.3333333), wk =   0.0138889
        k(   56) = (   0.5000000  -0.5000000   0.3333333), wk =   0.0069444
        k(   57) = (   0.5000000  -0.5833333   0.4166667), wk =   0.0138889
        k(   58) = (   0.0000000   0.0000000   0.5000000), wk =   0.0034722
        k(   59) = (   0.0000000  -0.0833333   0.5833333), wk =   0.0138889
        k(   60) = (   0.0000000  -0.1666667   0.6666667), wk =   0.0138889
        k(   61) = (   0.0000000   0.7500000  -0.2500000), wk =   0.0069444
        k(   62) = (  -0.0833333  -0.0833333   0.6666667), wk =   0.0138889
        k(   63) = (  -0.0833333   0.8333333  -0.2500000), wk =   0.0277778
        k(   64) = (  -0.1666667   0.8333333  -0.1666667), wk =   0.0046296
        k(   65) = (   0.5000000  -0.5000000   0.5000000), wk =   0.0011574
        k(   66) = (   0.0000000   0.0000000   0.6666667), wk =   0.0034722
        k(   67) = (   0.0000000  -0.0833333   0.7500000), wk =   0.0138889
        k(   68) = (   0.0000000   0.8333333  -0.1666667), wk =   0.0069444
        k(   69) = (  -0.0833333   0.9166667  -0.1666667), wk =   0.0138889
        k(   70) = (   0.0000000   0.0000000   0.8333333), wk =   0.0034722
        k(   71) = (   0.0000000   0.9166667  -0.0833333), wk =   0.0069444
        k(   72) = (   0.0000000   0.0000000  -1.0000000), wk =   0.0005787

     Check: negative core charge=   -0.000005
     Generating pointlists ...
     new r_m :   0.3572 (alat units)  1.9351 (a.u.) for type    1

     Initial potential from superposition of free atoms

     starting charge   15.99956, renormalised to   16.00000
     Starting wfcs are   13 randomized atomic wfcs

     Self-consistent Calculation

     iteration #  1     ecut=    90.00 Ry     beta= 0.10
     Davidson diagonalization with overlap
     ethr =  1.00E-04,  avg # of iterations =  5.7

     total energy              =    -329.28659556 Ry
     estimated scf accuracy    <       0.03566905 Ry

     total magnetization       =     1.92 Bohr mag/cell
     absolute magnetization    =     1.93 Bohr mag/cell

[...]

     negative rho (up, down):  0.000E+00 1.317E-06

[...]

     Magnetic moment per site  (integrated on atomic sphere of radius R)
     atom   1 (R=0.357)  charge= 14.4188  magn=  2.3199

     End of self-consistent calculation

     Number of k-points >= 100: set verbosity='high' to print the bands.

     the Fermi energy is    17.4716 ev

!    total energy              =    -329.30092462 Ry

     total all-electron energy =     -2545.597460 Ry
     estimated scf accuracy    <          3.8E-10 Ry
     smearing contrib. (-TS)   =      -0.00012162 Ry
     internal energy E=F+TS    =    -329.30080300 Ry

     The total energy is F=E-TS. E is the sum of the following terms:
     one-electron contribution =    -112.89668764 Ry
     hartree contribution      =      66.57669854 Ry
     xc contribution           =     -34.81110795 Ry
     ewald contribution        =    -171.98801223 Ry
     Dispersion Correction     =      -0.02976266 Ry
     one-center paw contrib.   =     -76.15193105 Ry

[...]

     convergence has been achieved in  17 iterations

[...]

     Forces acting on atoms (cartesian axes, Ry/au):

     atom    1 type  1   force =     0.00000000    0.00000000    0.00000000

     Total force =     0.000000     Total SCF correction =     0.000000

     Computing stress (Cartesian axis) and pressure

     negative rho (up, down):  0.000E+00 4.282E-05
          total   stress  (Ry/bohr**3)                   (kbar)     P=      -98.07
  -0.00066665   0.00000000  -0.00000000          -98.07        0.00       -0.00
   0.00000000  -0.00066665   0.00000000            0.00      -98.07        0.00
  -0.00000000   0.00000000  -0.00066665           -0.00        0.00      -98.07

     BFGS Geometry Optimization
     Energy error            =      0.0E+00 Ry
     Gradient error          =      0.0E+00 Ry/Bohr
     Cell gradient error     =      9.8E+01 kbar

     number of scf cycles    =   1
     number of bfgs steps    =   0

     enthalpy           new  =    -329.3009246215 Ry

     new trust radius        =       0.0297151634 bohr
ibrav =      3
 celldm(1) =      5.32663193
Input lattice vectors:
     0.49166692     0.49166692     0.49166692
    -0.49166692     0.49166692     0.49166692
    -0.49166692    -0.49166692     0.49166692
New lattice vectors in INITIAL alat:
     0.49166692     0.49166692     0.49166692
    -0.49166692     0.49166692     0.49166692
    -0.49166692    -0.49166692     0.49166692
New lattice vectors in NEW alat (for information only):
     0.50000000     0.50000000     0.50000000
    -0.50000000     0.50000000     0.50000000
    -0.50000000    -0.50000000     0.50000000
Discrepancy in bohr =     0.000000    0.000000    0.000000
     new conv_thr            =       0.0000000100 Ry

     new unit-cell volume =     75.56628 a.u.^3 (    11.19777 Ang^3 )
     density =      8.28136 g/cm^3

CELL_PARAMETERS (alat=  5.41691104)
   0.491666920   0.491666920   0.491666920
  -0.491666920   0.491666920   0.491666920
  -0.491666920  -0.491666920   0.491666920

ATOMIC_POSITIONS (angstrom)
Fe            0.0000000000        0.0000000000        0.0000000000

     Writing output data file ./Fe_bulk_vdw.save/
     NEW-OLD atomic charge density approx. for the potential

     Check: negative core charge=   -0.000007

     negative rho (up, down):  0.000E+00 4.240E-05
     extrapolated charge   15.17262, renormalised to   16.00000
     Generating pointlists ...
     new r_m :   0.3513 (alat units)  1.9029 (a.u.) for type    1

[...]

     Energy error            =      1.8E-03 Ry
     Gradient error          =      0.0E+00 Ry/Bohr
     Cell gradient error     =      3.6E+01 kbar

[...]

     enthalpy           old  =    -329.3009246215 Ry
     enthalpy           new  =    -329.3027286701 Ry

     CASE: enthalpy          _new < enthalpy          _old

[...]

     negative rho (up, down):  0.000E+00 3.154E-05
     extrapolated charge   15.54678, renormalised to   16.00000
     Generating pointlists ...

[...]

     Energy error            =      4.8E-05 Ry
     Gradient error          =      0.0E+00 Ry/Bohr
     Cell gradient error     =      1.0E+00 kbar

     number of scf cycles    =   4
     number of bfgs steps    =   3

     enthalpy           old  =    -329.3028492931 Ry
     enthalpy           new  =    -329.3028975800 Ry

     CASE: enthalpy          _new < enthalpy          _old

     new trust radius        =       0.0002717142 bohr
ibrav =      3
 celldm(1) =      5.29413416
Input lattice vectors:
     0.48866726     0.48866726     0.48866726
    -0.48866726     0.48866726     0.48866726
    -0.48866726    -0.48866726     0.48866726
New lattice vectors in INITIAL alat:
     0.48866726     0.48866726     0.48866726
    -0.48866726     0.48866726     0.48866726
    -0.48866726    -0.48866726     0.48866726
New lattice vectors in NEW alat (for information only):
     0.50000000     0.50000000     0.50000000
    -0.50000000     0.50000000     0.50000000
    -0.50000000    -0.50000000     0.50000000
Discrepancy in bohr =     0.000000    0.000000    0.000000
     new conv_thr            =            1.0E-10 Ry

     new unit-cell volume =     74.19162 a.u.^3 (    10.99406 Ang^3 )
     density =      8.43481 g/cm^3

[...]

ATOMIC_POSITIONS (angstrom)
Fe            0.0000000000        0.0000000000        0.0000000000

     Writing output data file ./Fe_bulk_vdw.save/
     NEW-OLD atomic charge density approx. for the potential

     Check: negative core charge=   -0.000008

     negative rho (up, down):  0.000E+00 2.906E-05
     extrapolated charge   15.99243, renormalised to   16.00000
     Generating pointlists ...

[...]

     Energy error            =      1.1E-07 Ry
     Gradient error          =      0.0E+00 Ry/Bohr
     Cell gradient error     =      5.4E-02 kbar
ibrav =      3
 celldm(1) =      5.29413416
Input lattice vectors:
     0.48866726     0.48866726     0.48866726
    -0.48866726     0.48866726     0.48866726
    -0.48866726    -0.48866726     0.48866726
New lattice vectors in INITIAL alat:
     0.48866726     0.48866726     0.48866726
    -0.48866726     0.48866726     0.48866726
    -0.48866726    -0.48866726     0.48866726
New lattice vectors in NEW alat (for information only):
     0.50000000     0.50000000     0.50000000
    -0.50000000     0.50000000     0.50000000
    -0.50000000    -0.50000000     0.50000000
Discrepancy in bohr =     0.000000    0.000000    0.000000

     bfgs converged in   5 scf cycles and   4 bfgs steps
     (criteria: energy <  1.0E-06 Ry, force <  1.0E-05Ry/Bohr, cell <  5.0E-01kbar)

     End of BFGS Geometry Optimization

     Final enthalpy           =    -329.3028976938 Ry

     File ./Fe_bulk_vdw.bfgs deleted, as requested
Begin final coordinates
     new unit-cell volume =     74.19162 a.u.^3 (    10.99406 Ang^3 )
     density =      8.43481 g/cm^3

CELL_PARAMETERS (alat=  5.41691104)
   0.488667261   0.488667261   0.488667261
  -0.488667261   0.488667261   0.488667261
  -0.488667261  -0.488667261   0.488667261

ATOMIC_POSITIONS (angstrom)
Fe            0.0000000000        0.0000000000        0.0000000000
End final coordinates

     Writing output data file ./Fe_bulk_vdw.save/

     Final scf calculation at the relaxed structure.
     The G-vectors are recalculated for the final unit cell
     Results may differ from those at the preceding step.

     Using Slab Decomposition

     bravais-lattice index     =            3
     lattice parameter (alat)  =       5.4169  a.u.
     unit-cell volume          =      74.1916 (a.u.)^3
     number of atoms/cell      =            1
     number of atomic types    =            1
     number of electrons       =        16.00
     number of Kohn-Sham states=           12
     kinetic-energy cutoff     =      90.0000  Ry
     charge density cutoff     =     900.0000  Ry
     scf convergence threshold =      1.0E-10
     mixing beta               =       0.1000
     number of iterations used =           10  local-TF  mixing
     press convergence thresh. =      5.0E-01
     Exchange-correlation= PBE
                           (   1   4   3   4   0   0   0)

     celldm(1)=   5.416911  celldm(2)=   0.000000  celldm(3)=   0.000000
     celldm(4)=   0.000000  celldm(5)=   0.000000  celldm(6)=   0.000000

     crystal axes: (cart. coord. in units of alat)
               a(1) = (   0.488667   0.488667   0.488667 )
               a(2) = (  -0.488667   0.488667   0.488667 )
               a(3) = (  -0.488667  -0.488667   0.488667 )

     reciprocal axes: (cart. coord. in units 2 pi/alat)
               b(1) = (  1.023191  0.000000  1.023191 )
               b(2) = ( -1.023191  1.023191  0.000000 )
               b(3) = (  0.000000 -1.023191  1.023191 )

     PseudoPot. # 1 for Fe read from file:
     ./SSSP/Fe.pbe-spn-kjpaw_psl.0.2.1.UPF
     MD5 check sum: e86618425769142926afa95317d90200
     Pseudo is Projector augmented-wave + core cor, Zval = 16.0
     Generated using "atomic" code by A. Dal Corso  v.5.0.99 svn rev. 10869
     Shape of augmentation charge: PSQ
     Using radial grid of 1191 points,  6 beta functions with:
                l(1) =   0
                l(2) =   0
                l(3) =   1
                l(4) =   1
                l(5) =   2
                l(6) =   2
     Q(r) pseudized with 0 coefficients

     atomic species   valence    mass     pseudopotential
        Fe            16.00    55.84500     Fe( 1.00)

     Starting magnetic structure
     atomic species   magnetization
        Fe           0.148

     48 Sym. Ops., with inversion, found

   Cartesian axes

     site n.     atom                  positions (alat units)
         1           Fe  tau(   1) = (   0.0000000   0.0000000   0.0000000  )

     number of k points=    72  Methfessel-Paxton smearing, width (Ry)=  0.0100
                       cart. coord. in units 2pi/alat
        k(    1) = (   0.0000000   0.0000000   0.0000000), wk =   0.0005787
        k(    2) = (   0.0000000  -0.0852659   0.0852659), wk =   0.0069444
        k(    3) = (   0.0000000  -0.1705319   0.1705319), wk =   0.0069444
        k(    4) = (   0.0000000  -0.2557978   0.2557978), wk =   0.0069444
        k(    5) = (   0.0000000  -0.3410637   0.3410637), wk =   0.0069444
        k(    6) = (   0.0000000  -0.4263296   0.4263296), wk =   0.0069444
        k(    7) = (   0.0000000   0.5115956  -0.5115956), wk =   0.0034722
        k(    8) = (  -0.0852659  -0.0852659   0.1705319), wk =   0.0138889
        k(    9) = (  -0.0852659  -0.1705319   0.2557978), wk =   0.0277778
        k(   10) = (  -0.0852659  -0.2557978   0.3410637), wk =   0.0277778
        k(   11) = (  -0.0852659  -0.3410637   0.4263296), wk =   0.0277778
        k(   12) = (  -0.0852659   0.5968615  -0.5115956), wk =   0.0277778
        k(   13) = (  -0.1705319  -0.1705319   0.3410637), wk =   0.0138889
        k(   14) = (  -0.1705319  -0.2557978   0.4263296), wk =   0.0277778
        k(   15) = (  -0.1705319   0.6821274  -0.5115956), wk =   0.0277778
        k(   16) = (  -0.1705319   0.5968615  -0.4263296), wk =   0.0138889
        k(   17) = (  -0.2557978   0.7673933  -0.5115956), wk =   0.0138889
        k(   18) = (  -0.2557978   0.6821274  -0.4263296), wk =   0.0277778
        k(   19) = (  -0.3410637   0.6821274  -0.3410637), wk =   0.0046296
        k(   20) = (   0.0000000   0.0000000   0.1705319), wk =   0.0034722
        k(   21) = (   0.0000000  -0.0852659   0.2557978), wk =   0.0138889
        k(   22) = (   0.0000000  -0.1705319   0.3410637), wk =   0.0138889
        k(   23) = (   0.0000000  -0.2557978   0.4263296), wk =   0.0138889
        k(   24) = (   0.0000000  -0.3410637   0.5115956), wk =   0.0138889
        k(   25) = (   0.0000000   0.5968615  -0.4263296), wk =   0.0069444
        k(   26) = (  -0.0852659  -0.0852659   0.3410637), wk =   0.0138889
        k(   27) = (  -0.0852659  -0.1705319   0.4263296), wk =   0.0277778
        k(   28) = (  -0.0852659  -0.2557978   0.5115956), wk =   0.0277778
        k(   29) = (  -0.0852659   0.6821274  -0.4263296), wk =   0.0277778
        k(   30) = (  -0.1705319   0.1705319   0.1705319), wk =   0.0046296
        k(   31) = (  -0.1705319  -0.1705319   0.5115956), wk =   0.0138889
        k(   32) = (  -0.1705319   0.7673933  -0.4263296), wk =   0.0277778
        k(   33) = (  -0.1705319   0.6821274  -0.3410637), wk =   0.0138889
        k(   34) = (  -0.2557978   0.2557978   0.1705319), wk =   0.0138889
        k(   35) = (  -0.2557978   0.7673933  -0.3410637), wk =   0.0138889
        k(   36) = (  -0.3410637   0.3410637   0.1705319), wk =   0.0138889
        k(   37) = (  -0.3410637   0.2557978   0.2557978), wk =   0.0138889
        k(   38) = (   0.5968615  -0.5968615   0.1705319), wk =   0.0138889
        k(   39) = (   0.5968615  -0.6821274   0.2557978), wk =   0.0277778
        k(   40) = (   0.5115956  -0.5115956   0.1705319), wk =   0.0069444
        k(   41) = (   0.5115956  -0.5968615   0.2557978), wk =   0.0277778
        k(   42) = (   0.5115956  -0.6821274   0.3410637), wk =   0.0138889
        k(   43) = (   0.4263296  -0.5968615   0.3410637), wk =   0.0138889
        k(   44) = (   0.0000000   0.0000000   0.3410637), wk =   0.0034722
        k(   45) = (   0.0000000  -0.0852659   0.4263296), wk =   0.0138889
        k(   46) = (   0.0000000  -0.1705319   0.5115956), wk =   0.0138889
        k(   47) = (   0.0000000  -0.2557978   0.5968615), wk =   0.0138889
        k(   48) = (   0.0000000   0.6821274  -0.3410637), wk =   0.0069444
        k(   49) = (  -0.0852659  -0.0852659   0.5115956), wk =   0.0138889
        k(   50) = (  -0.0852659  -0.1705319   0.5968615), wk =   0.0277778
        k(   51) = (  -0.0852659   0.7673933  -0.3410637), wk =   0.0277778
        k(   52) = (  -0.1705319   0.8526593  -0.3410637), wk =   0.0138889
        k(   53) = (  -0.1705319   0.7673933  -0.2557978), wk =   0.0138889
        k(   54) = (   0.6821274  -0.6821274   0.3410637), wk =   0.0046296
        k(   55) = (   0.5968615  -0.5968615   0.3410637), wk =   0.0138889
        k(   56) = (   0.5115956  -0.5115956   0.3410637), wk =   0.0069444
        k(   57) = (   0.5115956  -0.5968615   0.4263296), wk =   0.0138889
        k(   58) = (   0.0000000   0.0000000   0.5115956), wk =   0.0034722
        k(   59) = (   0.0000000  -0.0852659   0.5968615), wk =   0.0138889
        k(   60) = (   0.0000000  -0.1705319   0.6821274), wk =   0.0138889
        k(   61) = (   0.0000000   0.7673933  -0.2557978), wk =   0.0069444
        k(   62) = (  -0.0852659  -0.0852659   0.6821274), wk =   0.0138889
        k(   63) = (  -0.0852659   0.8526593  -0.2557978), wk =   0.0277778
        k(   64) = (  -0.1705319   0.8526593  -0.1705319), wk =   0.0046296
        k(   65) = (   0.5115956  -0.5115956   0.5115956), wk =   0.0011574
        k(   66) = (   0.0000000   0.0000000   0.6821274), wk =   0.0034722
        k(   67) = (   0.0000000  -0.0852659   0.7673933), wk =   0.0138889
        k(   68) = (   0.0000000   0.8526593  -0.1705319), wk =   0.0069444
        k(   69) = (  -0.0852659   0.9379252  -0.1705319), wk =   0.0138889
        k(   70) = (   0.0000000   0.0000000   0.8526593), wk =   0.0034722
        k(   71) = (   0.0000000   0.9379252  -0.0852659), wk =   0.0069444
        k(   72) = (   0.0000000   0.0000000  -1.0231911), wk =   0.0005787

     Check: negative core charge=   -0.000005
     Generating pointlists ...

     Initial potential from superposition of free atoms

     starting charge   15.99956, renormalised to   16.00000
     Starting wfcs are   13 randomized atomic wfcs

     Self-consistent Calculation

[...]

     total energy              =    -329.30280489 Ry
     estimated scf accuracy    <          1.5E-09 Ry

[...]

     iteration # 16     ecut=    90.00 Ry     beta= 0.10
     Davidson diagonalization with overlap
     ethr =  8.99E-12,  avg # of iterations =  1.6

[...]

     Magnetic moment per site  (integrated on atomic sphere of radius R)
     atom   1 (R=0.351)  charge= 14.3989  magn=  2.1249

     End of self-consistent calculation

     Number of k-points >= 100: set verbosity='high' to print the bands.

     the Fermi energy is    18.9967 ev

!    total energy              =    -329.30281761 Ry

     total all-electron energy =     -2545.599353 Ry
     estimated scf accuracy    <          5.9E-11 Ry
     smearing contrib. (-TS)   =       0.00014011 Ry
     internal energy E=F+TS    =    -329.30295772 Ry

     The total energy is F=E-TS. E is the sum of the following terms:
     one-electron contribution =    -106.52945478 Ry
     hartree contribution      =      64.22826058 Ry
     xc contribution           =     -34.83893265 Ry
     ewald contribution        =    -175.97660622 Ry
     Dispersion Correction     =      -0.03168390 Ry
     one-center paw contrib.   =     -76.15454074 Ry

     total magnetization       =     2.08 Bohr mag/cell
     absolute magnetization    =     2.19 Bohr mag/cell

     convergence has been achieved in  16 iterations

     negative rho (up, down):  0.000E+00 2.993E-05

     Forces acting on atoms (cartesian axes, Ry/au):

     atom    1 type  1   force =     0.00000000    0.00000000    0.00000000

     Total force =     0.000000     Total SCF correction =     0.000000

     Computing stress (Cartesian axis) and pressure

     negative rho (up, down):  0.000E+00 2.993E-05
          total   stress  (Ry/bohr**3)                   (kbar)     P=       -2.29
  -0.00001557  -0.00000000  -0.00000000           -2.29       -0.00       -0.00
  -0.00000000  -0.00001557   0.00000000           -0.00       -2.29        0.00
   0.00000000  -0.00000000  -0.00001557            0.00       -0.00       -2.29

     Writing output data file ./Fe_bulk_vdw.save/

     General routines

   This run was terminated on:   1:26:21  14May2022

   JOB DONE.