     Program PWSCF v.6.7MaX starts on  8Jul2022 at 19:17:19

     K-points division:     npool     =       8
     R & G space division:  proc/nbgrp/npool/nimage =      32
     Waiting for input...
     Reading input from standard input
Warning: card &CELL ignored
Warning: card / ignored

     Current dimensions of program PWSCF are:
     Max number of different atomic species (ntypx) = 10
     Max number of k-points (npk) =  40000
     Max angular momentum in pseudopotentials (lmaxx) =  3
     file Fe.pbe-spn-kjpaw_psl.0.2.1.UPF: wavefunction(s)  3D renormalized

     IMPORTANT: XC functional enforced from input :
     Exchange-correlation= PBE
                           (   1   4   3   4   0   0   0)
     Any further DFT definition will be discarded
     Please, verify this is what you really want

     Parameters for Dispersion (Grimme-D2) Correction:
       atom      VdW radius       C_6

        Fe         2.952        374.666
        N          2.640         42.670
        H          1.892          4.857

     bravais-lattice index     =            0
     lattice parameter (alat)  =      18.7640  a.u.
     unit-cell volume          =   16360.3161 (a.u.)^3
     number of atoms/cell      =           66
     number of atomic types    =            3
     number of electrons       =      1030.00
     number of Kohn-Sham states=          618
     kinetic-energy cutoff     =      60.0000  Ry
     charge density cutoff     =     480.0000  Ry
     scf convergence threshold =      1.0E-08
     mixing beta               =       0.2000
     number of iterations used =           10  local-TF  mixing
     energy convergence thresh.=      7.3E-07
     force convergence thresh. =      3.9E-04
     Exchange-correlation= PBE
                           (   1   4   3   4   0   0   0)
     nstep                     =           50

     Effective Screening Medium Method
     Boundary Conditions: Metal-Slab-Metal
     field strength                   =     0.00 Ry/a.u.
     grid points for fit at edges     =        4

     celldm(1)=  18.764036  celldm(2)=   0.000000  celldm(3)=   0.000000
     celldm(4)=   0.000000  celldm(5)=   0.000000  celldm(6)=   0.000000

     crystal axes: (cart. coord. in units of alat)
               a(1) = (   1.000000   0.000000   0.000000 )
               a(2) = (   0.333330   0.942807   0.000000 )
               a(3) = (   0.000000   0.000000   2.626577 )

     reciprocal axes: (cart. coord. in units 2 pi/alat)
               b(1) = (  1.000000 -0.353551  0.000000 )
               b(2) = (  0.000000  1.060663  0.000000 )
               b(3) = (  0.000000  0.000000  0.380724 )

     PseudoPot. # 1 for Fe read from file:
     ../../SSSP/Fe.pbe-spn-kjpaw_psl.0.2.1.UPF
     MD5 check sum: e86618425769142926afa95317d90200
     Pseudo is Projector augmented-wave + core cor, Zval = 16.0
     Generated using "atomic" code by A. Dal Corso  v.5.0.99 svn rev. 10869
     Shape of augmentation charge: PSQ
     Using radial grid of 1191 points,  6 beta functions with:
                l(1) =   0
                l(2) =   0
                l(3) =   1
                l(4) =   1
                l(5) =   2
                l(6) =   2
     Q(r) pseudized with 0 coefficients

     PseudoPot. # 2 for N  read from file:
     ../../SSSP/N.pbe-n-radius_5.UPF
     MD5 check sum: 16739722b17309cd8fe442a2ace49922
     Pseudo is Ultrasoft + core correction, Zval =  5.0
     Generated using "atomic" code by A. Dal Corso  v.5.1
     Using radial grid of 1085 points,  4 beta functions with:
                l(1) =   0
                l(2) =   0
                l(3) =   1
                l(4) =   1
     Q(r) pseudized with 0 coefficients

     PseudoPot. # 3 for H  read from file:
     ../../SSSP/H.pbe-rrkjus_psl.1.0.0.UPF
     MD5 check sum: f52b6d4d1c606e5624b1dc7b2218f220
     Pseudo is Ultrasoft, Zval =  1.0
     Generated using "atomic" code by A. Dal Corso  v.5.1
     Using radial grid of  929 points,  2 beta functions with:
                l(1) =   0
                l(2) =   0
     Q(r) pseudized with 0 coefficients

     atomic species   valence    mass     pseudopotential
        Fe            16.00    55.84500     Fe( 1.00)
        N              5.00    14.00700     N ( 1.00)
        H              1.00     1.00800     H ( 1.00)

     Starting magnetic structure
     atomic species   magnetization
        Fe           0.100
        N            0.100
        H            0.100

     No symmetry found

   Cartesian axes

     site n.     atom                  positions (alat units)
         1           Fe  tau(   1) = (   0.1666663   0.1178509   0.0000000  )
         2           Fe  tau(   2) = (   0.0000000   0.0000000   0.2041376  )
         3           Fe  tau(   3) = (   0.4999989   0.3535526   0.0000000  )
         4           Fe  tau(   4) = (   0.3333326   0.2357017   0.2041376  )
         5           Fe  tau(   5) = (   0.1692309   0.1174836   0.4055241  )
         6           Fe  tau(   6) = (   0.3358430   0.9392619   0.6065572  )
         7           Fe  tau(   7) = (   0.4994978   0.3560176   0.4072674  )
         8           Fe  tau(   8) = (   0.3419286   0.2351907   0.6069021  )
         9           Fe  tau(   9) = (   0.2499989   0.3535526   0.0000000  )
        10           Fe  tau(  10) = (   0.4166663   0.1178509   0.0000000  )
        11           Fe  tau(  11) = (   0.0833326   0.2357017   0.2041376  )
        12           Fe  tau(  12) = (   0.2500000   0.0000000   0.2041376  )
        13           Fe  tau(  13) = (   0.2500452   0.3534538   0.4077446  )
        14           Fe  tau(  14) = (   0.4190567   0.1195660   0.4061143  )
        15           Fe  tau(  15) = (   0.0922598   0.2320729   0.6067819  )
        16           Fe  tau(  16) = (   0.2529537   0.0020846   0.6064834  )
        17           Fe  tau(  17) = (   0.6666663   0.1178509   0.0000000  )
        18           Fe  tau(  18) = (   0.5000000   0.0000000   0.2041376  )
        19           Fe  tau(  19) = (   0.9999989   0.3535526   0.0000000  )
        20           Fe  tau(  20) = (   0.8333326   0.2357017   0.2041376  )
        21           Fe  tau(  21) = (   0.6687947   0.1165307   0.4072326  )
        22           Fe  tau(  22) = (   0.5023735   0.0082670   0.6069204  )
        23           Fe  tau(  23) = (   1.0003151   0.3509709   0.4069601  )
        24           Fe  tau(  24) = (   0.8517145   0.2096852   0.6029056  )
        25           Fe  tau(  25) = (   0.7499989   0.3535526   0.0000000  )
        26           Fe  tau(  26) = (   0.9166663   0.1178509   0.0000000  )
        27           Fe  tau(  27) = (   0.5833326   0.2357017   0.2041376  )
        28           Fe  tau(  28) = (   0.7500000   0.0000000   0.2041376  )
        29           Fe  tau(  29) = (   0.7499020   0.3534409   0.4088301  )
        30           Fe  tau(  30) = (   0.9195851   0.1134197   0.4032914  )
        31           Fe  tau(  31) = (   0.5924423   0.2420789   0.6050697  )
        32           Fe  tau(  32) = (   1.0846088   0.9332379   0.6074062  )
        33           Fe  tau(  33) = (   0.3333315   0.5892543   0.0000000  )
        34           Fe  tau(  34) = (   0.1666652   0.4714034   0.2041376  )
        35           Fe  tau(  35) = (   0.6666640   0.8249560   0.0000000  )
        36           Fe  tau(  36) = (   0.4999978   0.7071052   0.2041376  )
        37           Fe  tau(  37) = (   0.3307324   0.5895106   0.4058920  )
        38           Fe  tau(  38) = (   1.1584047   0.4709276   0.6065009  )
        39           Fe  tau(  39) = (   0.6671769   0.8274891   0.4055425  )
        40           Fe  tau(  40) = (   0.4974926   0.7106378   0.6065960  )
        41           Fe  tau(  41) = (   0.4166640   0.8249560   0.0000000  )
        42           Fe  tau(  42) = (   0.5833315   0.5892543   0.0000000  )
        43           Fe  tau(  43) = (   0.2499978   0.7071052   0.2041376  )
        44           Fe  tau(  44) = (   0.4166652   0.4714034   0.2041376  )
        45           Fe  tau(  45) = (   0.4165103   0.8248470   0.4041333  )
        46           Fe  tau(  46) = (   0.5801172   0.5934896   0.4033157  )
        47           Fe  tau(  47) = (   1.2456829   0.7040520   0.6068983  )
        48           Fe  tau(  48) = (   0.4080929   0.4758174   0.6074594  )
        49           Fe  tau(  49) = (   0.8333315   0.5892543   0.0000000  )
        50           Fe  tau(  50) = (   0.6666652   0.4714034   0.2041376  )
        51           Fe  tau(  51) = (   1.1666640   0.8249560   0.0000000  )
        52           Fe  tau(  52) = (   0.9999978   0.7071052   0.2041376  )
        53           Fe  tau(  53) = (   0.8309700   0.5903883   0.4069933  )
        54           Fe  tau(  54) = (   0.6482997   0.4973457   0.6029042  )
        55           Fe  tau(  55) = (   1.1660452   0.8224115   0.4058740  )
        56           Fe  tau(  56) = (   0.9967589   0.6994986   0.6064705  )
        57           Fe  tau(  57) = (   0.9166640   0.8249560   0.0000000  )
        58           Fe  tau(  58) = (   1.0833315   0.5892543   0.0000000  )
        59           Fe  tau(  59) = (   0.7499978   0.7071052   0.2041376  )
        60           Fe  tau(  60) = (   0.9166652   0.4714034   0.2041376  )
        61           Fe  tau(  61) = (   0.9165754   0.8250215   0.4077364  )
        62           Fe  tau(  62) = (   1.0807259   0.5874363   0.4059540  )
        63           Fe  tau(  63) = (   0.7494962   0.7167127   0.6068311  )
        64           Fe  tau(  64) = (   0.9077209   0.4650257   0.6049361  )
        65           N   tau(  65) = (   0.7501081   0.3535878   0.6396766  )
        66           H   tau(  66) = (   0.4633179   0.8579521   0.7025783  )

     number of k points=    10  Methfessel-Paxton smearing, width (Ry)=  0.0100
                       cart. coord. in units 2pi/alat
        k(    1) = (   0.0000000   0.0000000   0.0000000), wk =   0.0625000
        k(    2) = (   0.0000000   0.2651656   0.0000000), wk =   0.1250000
        k(    3) = (   0.0000000  -0.5303313   0.0000000), wk =   0.0625000
        k(    4) = (   0.2500000  -0.0883878   0.0000000), wk =   0.1250000
        k(    5) = (   0.2500000   0.1767779   0.0000000), wk =   0.1250000
        k(    6) = (   0.2500000  -0.6187190   0.0000000), wk =   0.1250000
        k(    7) = (   0.2500000  -0.3535534   0.0000000), wk =   0.1250000
        k(    8) = (  -0.5000000   0.1767755   0.0000000), wk =   0.0625000
        k(    9) = (  -0.5000000   0.4419412   0.0000000), wk =   0.1250000
        k(   10) = (  -0.5000000  -0.3535558   0.0000000), wk =   0.0625000

     Check: negative core charge=   -0.000039
     Generating pointlists ...
     new r_m :   0.0737 (alat units)  1.3827 (a.u.) for type    1
     new r_m :   0.0742 (alat units)  1.3929 (a.u.) for type    2
     new r_m :   0.0737 (alat units)  1.3827 (a.u.) for type    3

     Initial potential from superposition of free atoms

     starting charge 1029.97193, renormalised to 1030.00000

     negative rho (up, down):  1.363E-02 1.115E-02
     Starting wfcs are  837 randomized atomic wfcs
     Checking if some PAW data can be deallocated...

     Self-consistent Calculation

[...]
   -89.5295 -89.5293 -89.5265 -89.5192 -89.5150 -89.5140 -89.5097 -89.5097
   -89.5085 -89.5045 -89.5044 -89.5022 -89.5021 -89.4994 -89.4981 -89.4960
   -89.4901 -89.4844 -89.4826 -89.4807 -89.4801 -89.4785 -89.4785 -89.4781
   -89.4755 -89.4745 -89.4742 -89.4724 -89.4589 -89.4565 -89.4549 -89.4524
   -56.7991 -56.7910 -56.2618 -56.2502 -56.1863 -56.1766 -56.1444 -56.1395
   -55.9709 -55.9499 -55.9258 -55.9184 -55.9182 -55.9132 -55.9097 -55.9061
   -55.8842 -55.8838 -55.8715 -55.8698 -55.8677 -55.8610 -55.8501 -55.8499
   -55.8429 -55.8424 -55.8386 -55.8361 -55.8359 -55.8273 -55.8272 -55.8262
   -55.8237 -55.8231 -55.8171 -55.8120 -55.8111 -55.8048 -55.8015 -55.8010
   -55.7978 -55.7972 -55.7907 -55.7887 -55.7875 -55.7841 -55.7831 -55.7814
   -55.7810 -55.7764 -55.7718 -55.7680 -55.7637 -55.7586 -55.7577 -55.7576
   -55.7559 -55.7522 -55.7507 -55.7507 -55.7491 -55.7483 -55.7477 -55.7474
   -55.7445 -55.7426 -55.7415 -55.7405 -55.7389 -55.7341 -55.7312 -55.7284
   -55.7268 -55.7242 -55.7192 -55.7108 -55.7030 -55.7016 -55.6981 -55.6956
   -55.6899 -55.6889 -55.6825 -55.6817 -55.6786 -55.6778 -55.6627 -55.6611
   -55.6597 -55.6574 -55.6563 -55.6520 -55.6510 -55.6457 -55.6441 -55.6437
   -55.6414 -55.6369 -55.6338 -55.6329 -55.6306 -55.6283 -55.6259 -55.6237
   -55.6230 -55.6197 -55.6168 -55.6103 -55.6076 -55.6074 -55.6065 -55.6056
   -55.6028 -55.6018 -55.6004 -55.5983 -55.5979 -55.5973 -55.5952 -55.5928
   -55.5893 -55.5863 -55.5851 -55.5835 -55.5786 -55.5753 -55.5731 -55.5717
   -55.5707 -55.5698 -55.5662 -55.5648 -55.5643 -55.5629 -55.5585 -55.5560
   -55.5523 -55.5504 -55.5501 -55.5456 -55.5450 -55.5438 -55.5427 -55.5425
   -55.5412 -55.5406 -55.5391 -55.5378 -55.5355 -55.5344 -55.5343 -55.5338
   -55.5326 -55.5300 -55.5275 -55.5265 -55.5253 -55.5245 -55.5224 -55.5220
   -55.5167 -55.5165 -55.5155 -55.5127 -55.5103 -55.5095 -55.5092 -55.5082
   -55.5076 -55.5069 -55.5068 -55.5065 -55.5038 -55.5034 -55.5033 -55.5026
   -55.4997 -55.4994 -55.4960 -55.4944 -55.4932 -55.4913 -55.4901 -55.4878
   -55.4867 -55.4855 -55.4840 -55.4819 -55.4787 -55.4782 -55.4749 -55.4725
   -20.1624 -11.6286 -11.5813 -11.0811 -11.0696 -10.6448 -10.6033 -10.4619
   -10.0794  -9.9434  -9.5879  -9.4763  -9.3801  -8.9798  -8.9259  -8.9101
    -8.7661  -8.5330  -8.2980  -8.1414  -8.1267  -8.1095  -8.0970  -8.0888
    -8.0242  -8.0218  -7.9926  -7.9441  -7.9266  -7.8525  -7.6861  -7.5710
    -7.5661  -7.5579  -7.5415  -7.4901  -7.4481  -7.3679  -7.1937  -7.1092
    -7.1053  -7.0941  -7.0631  -7.0515  -7.0387  -6.9984  -6.9667  -6.9374
    -6.9246  -6.8713  -6.8099  -6.8050  -6.7803  -6.7670  -6.7584  -6.7515
    -6.5749  -6.5562  -6.5364  -6.5339  -6.5076  -6.4759  -6.4375  -6.3061
    -6.2626  -6.2472  -6.2410  -6.1979  -6.1940  -6.1881  -6.1185  -6.0793
    -6.0611  -6.0432  -6.0127  -6.0077  -5.9959  -5.9778  -5.9721  -5.9616
    -5.9487  -5.9378  -5.8933  -5.8709  -5.8704  -5.8640  -5.8626  -5.8566
    -5.8311  -5.8249  -5.8228  -5.7898  -5.7806  -5.6895  -5.6563  -5.6539
    -5.6472  -5.6451  -5.5757  -5.5522  -5.5273  -5.5162  -5.5124  -5.5065
    -5.4933  -5.4888  -5.4874  -5.4802  -5.4413  -5.4286  -5.4279  -5.4212
    -5.4193  -5.4118  -5.4107  -5.3960  -5.3938  -5.3886  -5.3800  -5.3769
    -5.3619  -5.3534  -5.3417  -5.3410  -5.3350  -5.3344  -5.3253  -5.3117
    -5.3039  -5.2913  -5.2741  -5.2700  -5.2673  -5.2664  -5.2617  -5.2554
    -5.2431  -5.2361  -5.2164  -5.2143  -5.1758  -5.0907  -5.0572  -5.0430
    -5.0241  -5.0181  -5.0157  -5.0018  -4.9997  -4.9868  -4.9805  -4.9644
    -4.9629  -4.8921  -4.8591  -4.8529  -4.8348  -4.8289  -4.8252  -4.8132
    -4.8020  -4.7954  -4.7708  -4.7558  -4.7539  -4.7284  -4.6836  -4.6599
    -4.6343  -4.6189  -4.6047  -4.5425  -4.5315  -4.5108  -4.4906  -4.4770
    -4.4512  -4.4412  -4.4406  -4.4328  -4.4157  -4.3949  -4.3828  -4.3692
    -4.3646  -4.3541  -4.3194  -4.3148  -4.2647  -4.1370  -4.1128  -4.1053
    -4.0015  -3.9708  -3.9675  -3.8552  -3.8305  -3.8027  -3.7849  -3.7306
    -3.7014  -3.6988  -3.6942  -3.6474  -3.6245  -3.5970  -3.5924  -3.5666
    -3.5543  -3.5334  -3.4897  -3.4629  -3.4496  -3.4487  -3.4476  -3.4172
    -3.3545  -3.3401  -3.3368  -3.3331  -3.3252  -3.3065  -3.2658  -3.2511
[...]
    -2.8948  -2.8578  -2.8563  -2.8486  -2.8433  -2.8319  -2.7992  -2.7949
    -2.7922  -2.7765  -2.7752  -2.7680  -2.7411  -2.7387  -2.7345  -2.7200
    -2.7187  -2.7037  -2.7011  -2.6923  -2.6869  -2.6860  -2.6697  -2.6632
    -2.6623  -2.6354  -2.6317  -2.6283  -2.6215  -2.6115  -2.6044  -2.6001
    -2.5987  -2.5954  -2.5923  -2.5844  -2.5695  -2.5653  -2.5576  -2.5519
    -2.5460  -2.5262  -2.5232  -2.5217  -2.5134  -2.5111  -2.5025  -2.5001
    -2.4956  -2.4745  -2.4632  -2.4605  -2.4525  -2.4287  -2.4188  -2.4174
    -2.3978  -2.3975  -2.3932  -2.3812  -2.3809  -2.3699  -2.3656  -2.3347
    -2.3328  -2.3258  -2.3244  -2.3140  -2.3088  -2.3027  -2.2955  -2.2873
    -2.2845  -2.2843  -2.2792  -2.2750  -2.2703  -2.2643  -2.2485  -2.2384
    -2.2367  -2.2286  -2.2255  -2.2112  -2.2031  -2.1980  -2.1727  -2.1715
    -2.1525  -2.1475  -2.1464  -2.1221  -2.1183  -2.1079  -1.9765  -1.9530
    -1.9203  -1.9024  -1.8691  -1.8536  -1.7261  -1.7010  -1.6877  -1.6822
    -1.6756  -1.6497  -1.6405  -1.6241  -1.6094  -1.5879  -1.5813  -1.3779
    -1.3650  -1.3304

     the Fermi energy is    -4.4421 ev

!    total energy              =  -21093.76789009 Ry
     estimated scf accuracy    <          7.5E-11 Ry
     smearing contrib. (-TS)   =       0.00324956 Ry
     internal energy E=F+TS    =  -21093.77113965 Ry

     The total energy is F=E-TS. E is the sum of the following terms:
     one-electron contribution = -743987.30066855 Ry
     hartree contribution      =  371820.18372690 Ry
     xc contribution           =   -2234.32942769 Ry
     ewald contribution        =  358182.52320792 Ry
     Dispersion Correction     =      -1.39586626 Ry
     one-center paw contrib.   =   -4873.45211196 Ry

     total magnetization       =   160.43 Bohr mag/cell
     absolute magnetization    =   167.37 Bohr mag/cell

     convergence has been achieved in  16 iterations

     negative rho (up, down):  1.202E-02 1.592E-02

     Forces acting on atoms (cartesian axes, Ry/au):

     atom    1 type  1   force =     0.00009757    0.00066192    0.00890274
     atom    2 type  1   force =     0.00259580   -0.00389784   -0.01552449
     atom    3 type  1   force =    -0.00085045   -0.00069776    0.00861800
     atom    4 type  1   force =     0.00078140    0.00123822   -0.00828521
     atom    5 type  1   force =    -0.00000987   -0.00001212    0.00002452
     atom    6 type  1   force =    -0.00000894   -0.00002995   -0.00018433
     atom    7 type  1   force =     0.00000053    0.00006867    0.00000715
     atom    8 type  1   force =    -0.00001879    0.00003749   -0.00009896
     atom    9 type  1   force =     0.00005623    0.00008785    0.00833973
     atom   10 type  1   force =    -0.00064913   -0.00046794    0.00892096
     atom   11 type  1   force =     0.00102790   -0.00024797   -0.00875906
     atom   12 type  1   force =     0.00036833    0.00031322   -0.01290774
     atom   13 type  1   force =     0.00000553    0.00001693    0.00001270
     atom   14 type  1   force =    -0.00001436   -0.00000541   -0.00000694
     atom   15 type  1   force =     0.00018567    0.00012333   -0.00014319
     atom   16 type  1   force =     0.00010075    0.00007516   -0.00008139
     atom   17 type  1   force =    -0.00094408   -0.00051671    0.00860007
     atom   18 type  1   force =     0.00143643    0.00033677   -0.00825877
     atom   19 type  1   force =     0.00073546    0.00064953    0.00867299
     atom   20 type  1   force =    -0.00118708    0.00144882   -0.00294165
     atom   21 type  1   force =     0.00005968   -0.00002572   -0.00000001
     atom   22 type  1   force =     0.00003317   -0.00002077   -0.00010996
     atom   23 type  1   force =    -0.00001676   -0.00004513    0.00003525
     atom   24 type  1   force =    -0.00006757    0.00004795   -0.00015600
     atom   25 type  1   force =     0.00005266   -0.00000800    0.00750133
     atom   26 type  1   force =    -0.00103239    0.00133419    0.00835393
     atom   27 type  1   force =     0.00133861    0.00087537   -0.00363448
     atom   28 type  1   force =     0.00012341   -0.00100010   -0.00811637
     atom   29 type  1   force =     0.00000466    0.00000176    0.00014003
     atom   30 type  1   force =     0.00001894    0.00000792    0.00004556
     atom   31 type  1   force =    -0.00004372   -0.00002860   -0.00014259
     atom   32 type  1   force =    -0.00016563   -0.00010217   -0.00012075
     atom   33 type  1   force =     0.00008224   -0.00078693    0.00871361
     atom   34 type  1   force =    -0.00064208   -0.00117984   -0.00839350
     atom   35 type  1   force =     0.00066891   -0.00013677    0.00891362
     atom   36 type  1   force =    -0.00286478    0.00380807   -0.01551600
     atom   37 type  1   force =     0.00002293    0.00003242    0.00002138
     atom   38 type  1   force =     0.00006831    0.00004758   -0.00008346
     atom   39 type  1   force =    -0.00001788   -0.00000256    0.00002620
     atom   40 type  1   force =    -0.00003077   -0.00000002   -0.00018320
     atom   41 type  1   force =     0.00016747    0.00006502    0.00931915
     atom   42 type  1   force =     0.00091799   -0.00142177    0.00836965
     atom   43 type  1   force =    -0.00086566   -0.00054196   -0.01244902
     atom   44 type  1   force =    -0.00093162    0.00045350   -0.00803314
     atom   45 type  1   force =     0.00003232    0.00002435    0.00005429
     atom   46 type  1   force =     0.00001518    0.00001084    0.00003462
     atom   47 type  1   force =    -0.00011210   -0.00008301   -0.00012241
     atom   48 type  1   force =    -0.00014506   -0.00012297   -0.00012795
     atom   49 type  1   force =     0.00083638    0.00051608    0.00869666
     atom   50 type  1   force =     0.00101562   -0.00169195   -0.00291277
     atom   51 type  1   force =    -0.00070759    0.00035135    0.00874299
     atom   52 type  1   force =    -0.00133379   -0.00019300   -0.00841947
     atom   53 type  1   force =    -0.00004790   -0.00000189    0.00003550
     atom   54 type  1   force =     0.00002053   -0.00008120   -0.00016043
     atom   55 type  1   force =     0.00003548    0.00001041    0.00003299
     atom   56 type  1   force =     0.00006703    0.00005112   -0.00007648
     atom   57 type  1   force =     0.00006982   -0.00004085    0.00834319
     atom   58 type  1   force =     0.00049499    0.00034478    0.00889108
     atom   59 type  1   force =     0.00010988    0.00106520   -0.00868384
     atom   60 type  1   force =    -0.00120164   -0.00089399   -0.00360685
     atom   61 type  1   force =     0.00000838   -0.00000835    0.00001717
     atom   62 type  1   force =     0.00000964    0.00000835   -0.00000982
     atom   63 type  1   force =     0.00017623    0.00012639   -0.00014161
     atom   64 type  1   force =     0.00007058    0.00005204   -0.00010921
     atom   65 type  2   force =     0.00000118   -0.00000412   -0.00006599
     atom   66 type  3   force =    -0.00000419    0.00000480   -0.00005765

     Total force =     0.000766     Total SCF correction =     0.000043
     Energy error            =      6.0E-07
     Gradient error          =      1.9E-04

     bfgs converged in   8 scf cycles and   7 bfgs steps
     (criteria: energy <  7.3E-07 Ry, force <  3.9E-04 Ry/Bohr)

     End of BFGS Geometry Optimization

     Final energy   =  -21093.7678900938 Ry

     File ./Fe_N_H_paper_480c_ESM_std.bfgs deleted, as requested
Begin final coordinates

ATOMIC_POSITIONS (angstrom)
Fe            1.6549129530        1.1702001330        0.0000000000    0   0   0
Fe            0.0000000000        0.0000000000        2.0269842320    0   0   0
Fe            4.9647388580        3.5106003990        0.0000000000    0   0   0
Fe            3.3098259060        2.3404002660        2.0269842320    0   0   0
Fe            1.6800120489        1.1668405400        4.0262679363
Fe            3.3356907645        9.3267519960        6.0217426145
Fe            4.9598984672        3.5350908164        4.0435617450
Fe            3.3943827602        2.3353961800        6.0244388592
Fe            2.4823638580        3.5106003990        0.0000000000    0   0   0
Fe            4.1372879530        1.1702001330        0.0000000000    0   0   0
Fe            0.8274509060        2.3404002660        2.0269842320    0   0   0
Fe            2.4823750000        0.0000000000        2.0269842320    0   0   0
Fe            2.4828682566        3.5096301058        4.0485509026
Fe            4.1610020454        1.1871425371        4.0322501682
Fe            0.9140885134        2.3031277321        6.0259142643
Fe            2.5104645597        0.0198874811        6.0199319264
Fe            6.6196629530        1.1702001330        0.0000000000    0   0   0
Fe            4.9647500000        0.0000000000        2.0269842320    0   0   0
Fe            9.9294888580        3.5106003990        0.0000000000    0   0   0
Fe            8.2745759060        2.3404002660        2.0269842320    0   0   0
Fe            6.6409209683        1.1572819395        4.0432870989
Fe            4.9880820866        0.0813228911        6.0247422624
Fe            9.9328860686        3.4849121785        4.0402690332
Fe            8.4573806072        2.0823250267        5.9842023879
Fe            7.4471138580        3.5106003990        0.0000000000    0   0   0
Fe            9.1020379530        1.1702001330        0.0000000000    0   0   0
Fe            5.7922009060        2.3404002660        2.0269842320    0   0   0
Fe            7.4471250000        0.0000000000        2.0269842320    0   0   0
Fe            7.4463279496        3.5096623896        4.0582326749
Fe            9.1311704639        1.1261904552        4.0030446429
Fe            5.8826600248        2.4038169219        6.0065466382
Fe           10.7717081207        9.2679554674        6.0313527088
Fe            3.3098147640        5.8510006640        0.0000000000    0   0   0
Fe            1.6549018110        4.6808005310        2.0269842320    0   0   0
Fe            6.6196406700        8.1914009300        0.0000000000    0   0   0
Fe            4.9647277170        7.0212007970        2.0269842320    0   0   0
Fe            3.2843643692        5.8535130538        4.0302560787
Fe           11.5027055324        4.6755383257        6.0209309040
Fe            6.6249413269        8.2161040970        4.0264672287
Fe            4.9404817522        7.0570943022        6.0221957778
Fe            4.1372656700        8.1914009300        0.0000000000    0   0   0
Fe            5.7921897640        5.8510006640        0.0000000000    0   0   0
Fe            2.4823527170        7.0212007970        2.0269842320    0   0   0
Fe            4.1372768110        4.6808005310        2.0269842320    0   0   0
Fe            4.1358812557        8.1903863390        4.0118244561
Fe            5.7602588992        5.8932512275        4.0032852077
Fe           12.3706669654        6.9921103539        6.0254766557
Fe            4.0541481106        4.7261504623        6.0317804142
Fe            8.2745647640        5.8510006640        0.0000000000    0   0   0
Fe            6.6196518110        4.6808005310        2.0269842320    0   0   0
Fe           11.5843906700        8.1914009300        0.0000000000    0   0   0
Fe            9.9294777170        7.0212007970        2.0269842320    0   0   0
Fe            8.2511826085        5.8625636100        4.0405471517
Fe            6.4376450431        4.9385943990        5.9840273705
Fe           11.5783989695        8.1665317885        4.0300409426
Fe            9.8969698518        6.9460537504        6.0204616153
Fe            9.1020156700        8.1914009300        0.0000000000    0   0   0
Fe           10.7569397640        5.8510006640        0.0000000000    0   0   0
Fe            7.4471027170        7.0212007970        2.0269842320    0   0   0
Fe            9.1020268110        4.6808005310        2.0269842320    0   0   0
Fe            9.1012427716        8.1921800942        4.0484898126
Fe           10.7312790923        5.8330485434        4.0309754672
Fe            7.4403574681        7.1151175223        6.0263704204
Fe            9.0131752938        4.6174863418        6.0047920950
N             7.4483142126        3.5110681045        6.3466798495
H             4.6002180768        8.5188512224        6.9762956624
End final coordinates

     Writing output data file ./Fe_N_H_paper_480c_ESM_std.save/

     General routines

     Parallel routines

   This run was terminated on:  23:23: 6   8Jul2022

   JOB DONE.