     Program PWSCF v.6.4.1 starts on 15Jun2022 at 15: 7:37

     K-points division:     npool     =       8
     R & G space division:  proc/nbgrp/npool/nimage =      20
     Waiting for input...
     Reading input from standard input
Warning: card &CELL ignored
Warning: card / ignored

     Current dimensions of program PWSCF are:
     Max number of different atomic species (ntypx) = 10
     Max number of k-points (npk) =  40000
     Max angular momentum in pseudopotentials (lmaxx) =  3

     IMPORTANT: XC functional enforced from input :
     Exchange-correlation      = PBE ( 1  4  3  4 0 0)
     Any further DFT definition will be discarded
     Please, verify this is what you really want

               file Fe.pbe-spn-kjpaw_psl.0.2.1.UPF: wavefunction(s)  3D renormalized

     Parameters for Dispersion (Grimme-D2) Correction:
       atom      VdW radius       C_6

        Fe         2.952        374.666
        N          2.640         42.670
        H          1.892          4.857

     bravais-lattice index     =            0
     lattice parameter (alat)  =      18.7640  a.u.
     unit-cell volume          =   16360.3163 (a.u.)^3
     number of atoms/cell      =           66
     number of atomic types    =            3
     number of electrons       =      1030.00
     number of Kohn-Sham states=          618
     kinetic-energy cutoff     =      60.0000  Ry
     charge density cutoff     =     480.0000  Ry
     convergence threshold     =      1.0E-08
     mixing beta               =       0.2000
     number of iterations used =           10  local-TF  mixing
     Exchange-correlation      = PBE ( 1  4  3  4 0 0)
     nstep                     =           50

     Effective Screening Medium Method
     Boundary Conditions: Metal-Slab-Metal
     field strength                   =    -0.02 Ry/a.u.
     grid points for fit at edges     =        4

     celldm(1)=  18.764036  celldm(2)=   0.000000  celldm(3)=   0.000000
     celldm(4)=   0.000000  celldm(5)=   0.000000  celldm(6)=   0.000000

     crystal axes: (cart. coord. in units of alat)
               a(1) = (   1.000000   0.000000   0.000000 )
               a(2) = (   0.333330   0.942807   0.000000 )
               a(3) = (   0.000000   0.000000   2.626577 )

     reciprocal axes: (cart. coord. in units 2 pi/alat)
               b(1) = (  1.000000 -0.353551  0.000000 )
               b(2) = (  0.000000  1.060663  0.000000 )
               b(3) = (  0.000000  0.000000  0.380724 )

     PseudoPot. # 1 for Fe read from file:
     ../../SSSP/Fe.pbe-spn-kjpaw_psl.0.2.1.UPF
     MD5 check sum: e86618425769142926afa95317d90200
     Pseudo is Projector augmented-wave + core cor, Zval = 16.0
     Generated using "atomic" code by A. Dal Corso v.5.0.99 svn rev. 10869
     Shape of augmentation charge: PSQ
     Using radial grid of 1191 points,  6 beta functions with:
                l(1) =   0
                l(2) =   0
                l(3) =   1
                l(4) =   1
                l(5) =   2
                l(6) =   2
     Q(r) pseudized with 0 coefficients

     PseudoPot. # 2 for N  read from file:
     ../../SSSP/N.pbe-n-radius_5.UPF
     MD5 check sum: 16739722b17309cd8fe442a2ace49922
     Pseudo is Ultrasoft + core correction, Zval =  5.0
     Generated using "atomic" code by A. Dal Corso v.5.1
     Using radial grid of 1085 points,  4 beta functions with:
                l(1) =   0
                l(2) =   0
                l(3) =   1
                l(4) =   1
     Q(r) pseudized with 0 coefficients

     PseudoPot. # 3 for H  read from file:
     ../../SSSP/H.pbe-rrkjus_psl.1.0.0.UPF
     MD5 check sum: f52b6d4d1c606e5624b1dc7b2218f220
     Pseudo is Ultrasoft, Zval =  1.0
     Generated using "atomic" code by A. Dal Corso v.5.1
     Using radial grid of  929 points,  2 beta functions with:
                l(1) =   0
                l(2) =   0
     Q(r) pseudized with 0 coefficients

     atomic species   valence    mass     pseudopotential
        Fe            16.00    55.84500     Fe( 1.00)
        N              5.00    14.00700     N ( 1.00)
        H              1.00     1.00800     H ( 1.00)

     Starting magnetic structure
     atomic species   magnetization
        Fe           0.100
        N            0.100
        H            0.100

     No symmetry found

   Cartesian axes

     site n.     atom                  positions (alat units)
         1           Fe  tau(   1) = (   0.1666663   0.1178509   0.0000000  )
         2           Fe  tau(   2) = (   0.0000000   0.0000000   0.2041376  )
         3           Fe  tau(   3) = (   0.4999989   0.3535526   0.0000000  )
         4           Fe  tau(   4) = (   0.3333326   0.2357017   0.2041376  )
         5           Fe  tau(   5) = (   0.1686285   0.1178444   0.4053509  )
         6           Fe  tau(   6) = (   0.3341138   0.9417908   0.6036220  )
         7           Fe  tau(   7) = (   0.5010571   0.3547382   0.4069762  )
         8           Fe  tau(   8) = (   0.3388431   0.2353412   0.6054646  )
         9           Fe  tau(   9) = (   0.2499989   0.3535526   0.0000000  )
        10           Fe  tau(  10) = (   0.4166663   0.1178509   0.0000000  )
        11           Fe  tau(  11) = (   0.0833326   0.2357017   0.2041376  )
        12           Fe  tau(  12) = (   0.2500000   0.0000000   0.2041376  )
        13           Fe  tau(  13) = (   0.2500013   0.3535851   0.4068436  )
        14           Fe  tau(  14) = (   0.4190417   0.1195776   0.4061143  )
        15           Fe  tau(  15) = (   0.0863955   0.2339549   0.6039849  )
        16           Fe  tau(  16) = (   0.2512517   0.0009152   0.6053189  )
        17           Fe  tau(  17) = (   0.6666663   0.1178509   0.0000000  )
        18           Fe  tau(  18) = (   0.5000000   0.0000000   0.2041376  )
        19           Fe  tau(  19) = (   0.9999989   0.3535526   0.0000000  )
        20           Fe  tau(  20) = (   0.8333326   0.2357017   0.2041376  )
        21           Fe  tau(  21) = (   0.6681086   0.1185096   0.4069531  )
        22           Fe  tau(  22) = (   0.5014849   0.0053883   0.6054906  )
        23           Fe  tau(  23) = (   0.9989690   0.3524567   0.4069506  )
        24           Fe  tau(  24) = (   0.8419824   0.2236035   0.6021388  )
        25           Fe  tau(  25) = (   0.7499989   0.3535526   0.0000000  )
        26           Fe  tau(  26) = (   0.9166663   0.1178509   0.0000000  )
        27           Fe  tau(  27) = (   0.5833326   0.2357017   0.2041376  )
        28           Fe  tau(  28) = (   0.7500000   0.0000000   0.2041376  )
        29           Fe  tau(  29) = (   0.7500262   0.3535864   0.4028105  )
        30           Fe  tau(  30) = (   0.9183967   0.1154676   0.4034806  )
        31           Fe  tau(  31) = (   0.5924062   0.2421762   0.6094502  )
        32           Fe  tau(  32) = (   1.0840597   0.9394357   0.6039872  )
        33           Fe  tau(  33) = (   0.3333315   0.5892543   0.0000000  )
        34           Fe  tau(  34) = (   0.1666652   0.4714034   0.2041376  )
        35           Fe  tau(  35) = (   0.6666640   0.8249560   0.0000000  )
        36           Fe  tau(  36) = (   0.4999978   0.7071052   0.2041376  )
        37           Fe  tau(  37) = (   0.3314016   0.5893182   0.4053558  )
        38           Fe  tau(  38) = (   1.1612288   0.4718641   0.6054848  )
        39           Fe  tau(  39) = (   0.6673049   0.8268444   0.4053531  )
        40           Fe  tau(  40) = (   0.4992723   0.7082197   0.6035056  )
        41           Fe  tau(  41) = (   0.4166640   0.8249560   0.0000000  )
        42           Fe  tau(  42) = (   0.5833315   0.5892543   0.0000000  )
        43           Fe  tau(  43) = (   1.2499978   0.7071052   0.2041376  )
        44           Fe  tau(  44) = (   0.4166652   0.4714034   0.2041376  )
        45           Fe  tau(  45) = (   0.4166687   0.8250097   0.4049660  )
        46           Fe  tau(  46) = (   0.5816525   0.5916924   0.4034550  )
        47           Fe  tau(  47) = (   1.2488056   0.7062978   0.6053108  )
        48           Fe  tau(  48) = (   0.4136562   0.4732691   0.6040576  )
        49           Fe  tau(  49) = (   0.8333315   0.5892543   0.0000000  )
        50           Fe  tau(  50) = (   0.6666652   0.4714034   0.2041376  )
        51           Fe  tau(  51) = (   1.1666640   0.8249560   0.0000000  )
        52           Fe  tau(  52) = (   0.9999978   0.7071052   0.2041376  )
        53           Fe  tau(  53) = (   0.8319318   0.5887060   0.4069754  )
        54           Fe  tau(  54) = (   0.6580739   0.4836954   0.6021394  )
        55           Fe  tau(  55) = (   1.1660721   0.8231522   0.4053495  )
        56           Fe  tau(  56) = (   0.9986058   0.7018871   0.6054513  )
        57           Fe  tau(  57) = (   0.9166640   0.8249560   0.0000000  )
        58           Fe  tau(  58) = (   1.0833315   0.5892543   0.0000000  )
        59           Fe  tau(  59) = (   0.7499978   0.7071052   0.2041376  )
        60           Fe  tau(  60) = (   0.9166652   0.4714034   0.2041376  )
        61           Fe  tau(  61) = (   0.9166914   0.8250215   0.4068437  )
        62           Fe  tau(  62) = (   1.0809829   0.5876358   0.4061148  )
        63           Fe  tau(  63) = (   0.7493409   0.7106718   0.6040550  )
        64           Fe  tau(  64) = (   0.9077141   0.4651188   0.6094298  )
        65           N   tau(  65) = (   0.7501739   0.3537627   0.7047077  )
        66           H   tau(  66) = (   0.7501852   0.3538175   0.8083634  )

     number of k points=    10  Methfessel-Paxton smearing, width (Ry)=  0.0100
                       cart. coord. in units 2pi/alat
        k(    1) = (   0.0000000   0.0000000   0.0000000), wk =   0.0625000
        k(    2) = (   0.0000000   0.2651656   0.0000000), wk =   0.1250000
        k(    3) = (   0.0000000  -0.5303313   0.0000000), wk =   0.0625000
        k(    4) = (   0.2500000  -0.0883878   0.0000000), wk =   0.1250000
        k(    5) = (   0.2500000   0.1767779   0.0000000), wk =   0.1250000
        k(    6) = (   0.2500000  -0.6187190   0.0000000), wk =   0.1250000
        k(    7) = (   0.2500000  -0.3535534   0.0000000), wk =   0.1250000
        k(    8) = (  -0.5000000   0.1767755   0.0000000), wk =   0.0625000
        k(    9) = (  -0.5000000   0.4419412   0.0000000), wk =   0.1250000
        k(   10) = (  -0.5000000  -0.3535558   0.0000000), wk =   0.0625000

     Check: negative core charge=   -0.000039

     Initial potential from superposition of free atoms

     starting charge 1029.97193, renormalised to 1030.00000

     negative rho (up, down):  2.449E-02 2.497E-03
     Starting wfcs are  837 randomized atomic wfcs
     Checking if some PAW data can be deallocated...

     Self-consistent Calculation

     iteration #  1     ecut=    60.00 Ry     beta= 0.20
     Davidson diagonalization with overlap
     ethr =  1.00E-04,  avg # of iterations = 18.1

     negative rho (up, down):  1.499E-02 3.107E-03

     total energy              =  -21078.36308058 Ry
     Harris-Foulkes estimate   =  -21100.68051766 Ry
     estimated scf accuracy    <    1159.96608550 Ry

[...]
     atom:   57    charge:   12.9284    magn:    2.4271    constr:    0.0000
     atom:   58    charge:   12.9276    magn:    2.4336    constr:    0.0000
     atom:   59    charge:   12.9205    magn:    2.2727    constr:    0.0000
     atom:   60    charge:   12.9198    magn:    2.2725    constr:    0.0000
     atom:   61    charge:   12.9210    magn:    2.2654    constr:    0.0000
     atom:   62    charge:   12.9252    magn:    2.2177    constr:    0.0000
     atom:   63    charge:   12.9346    magn:    2.4043    constr:    0.0000
     atom:   64    charge:   12.9214    magn:    2.3224    constr:    0.0000
     atom:   65    charge:    1.3322    magn:   -0.0344    constr:    0.0000
     atom:   66    charge:    0.4385    magn:    0.0083    constr:    0.0000

     End of self-consistent calculation

 ------ SPIN UP ------------

[...]

 ------ SPIN DOWN ----------

[...]

          k = 0.2500-0.3536 0.0000 (128397 PWs)   bands (ev):

[...]

          k =-0.5000-0.3536 0.0000 (128560 PWs)   bands (ev):

   -97.7699 -97.7682 -97.4113 -97.4098 -97.3349 -97.3327 -97.3052 -97.3007
   -97.2889 -97.2837 -97.2778 -97.2766 -97.2719 -97.2677 -97.2674 -97.2667
   -97.2630 -97.2605 -97.2596 -97.2568 -97.2566 -97.2487 -97.2476 -97.2464
   -97.2449 -97.2433 -97.2428 -97.2413 -97.2407 -97.2403 -97.2391 -97.2373
   -97.2242 -97.2193 -97.2187 -97.2184 -97.2179 -97.2163 -97.2155 -97.2054
   -97.2031 -97.2024 -97.2024 -97.2020 -97.2020 -97.1992 -97.1991 -97.1923
   -97.1919 -97.1819 -97.1817 -97.1806 -97.1805 -97.1801 -97.1795 -97.1787
   -97.1781 -97.1781 -97.1754 -97.1704 -97.1584 -97.1576 -97.1575 -97.1573
   -64.2097 -64.1933 -63.8637 -63.8581 -63.7030 -63.6848 -63.6420 -63.6389
   -63.5658 -63.5647 -63.5642 -63.5621 -63.5568 -63.5564 -63.5543 -63.5489
   -63.5469 -63.5454 -63.5442 -63.5404 -63.5402 -63.5376 -63.5351 -63.5349
   -63.5342 -63.5293 -63.5259 -63.5242 -63.5221 -63.5176 -63.5142 -63.5125
   -63.5104 -63.5021 -63.5017 -63.5014 -63.4984 -63.4954 -63.4942 -63.4922
   -63.4845 -63.4780 -63.4759 -63.4748 -63.4706 -63.4697 -63.4648 -63.4641
   -63.4632 -63.4619 -63.4609 -63.4578 -63.4566 -63.4562 -63.4549 -63.4525
   -63.4498 -63.4495 -63.4492 -63.4475 -63.4457 -63.4454 -63.4450 -63.4419
   -63.4352 -63.4327 -63.4304 -63.4281 -63.4243 -63.4181 -63.4180 -63.4133
   -63.4045 -63.4016 -63.3980 -63.3895 -63.3836 -63.3815 -63.3798 -63.3797
   -63.3783 -63.3702 -63.3697 -63.3665 -63.3599 -63.3540 -63.3539 -63.3492
   -63.3479 -63.3473 -63.3455 -63.3450 -63.3417 -63.3391 -63.3381 -63.3365
   -63.3350 -63.3348 -63.3319 -63.3311 -63.3200 -63.3191 -63.3171 -63.3131
   -63.3127 -63.3081 -63.3061 -63.3050 -63.3043 -63.3035 -63.3014 -63.2998
   -63.2991 -63.2983 -63.2948 -63.2941 -63.2935 -63.2913 -63.2904 -63.2868
   -63.2861 -63.2767 -63.2764 -63.2746 -63.2739 -63.2699 -63.2683 -63.2679
   -63.2652 -63.2641 -63.2617 -63.2612 -63.2604 -63.2535 -63.2533 -63.2514
   -63.2508 -63.2481 -63.2467 -63.2456 -63.2450 -63.2439 -63.2419 -63.2408
   -63.2402 -63.2401 -63.2379 -63.2362 -63.2349 -63.2338 -63.2334 -63.2314
   -63.2270 -63.2269 -63.2267 -63.2238 -63.2238 -63.2207 -63.2178 -63.2166
   -63.2157 -63.2146 -63.2135 -63.2133 -63.2126 -63.2125 -63.2125 -63.2123
   -63.2113 -63.2112 -63.2099 -63.2091 -63.2059 -63.2058 -63.2042 -63.2026
   -63.2023 -63.1992 -63.1989 -63.1986 -63.1985 -63.1931 -63.1909 -63.1907
   -63.1895 -63.1879 -63.1863 -63.1850 -63.1833 -63.1829 -63.1797 -63.1783
   -28.2572 -19.7761 -19.2476 -19.1444 -18.6911 -18.6065 -18.0033 -17.8446
   -17.5641 -17.3040 -17.1419 -17.0037 -16.6630 -16.6456 -16.5943 -16.5350
   -16.1960 -16.1726 -15.8326 -15.8280 -15.8073 -15.7965 -15.7721 -15.7370
   -15.7147 -15.6961 -15.6763 -15.6348 -15.6259 -15.5795 -15.2770 -15.2538
   -15.2453 -15.2434 -15.2117 -15.1983 -15.0573 -15.0122 -14.7944 -14.7765
   -14.7720 -14.7470 -14.7359 -14.7182 -14.7079 -14.6840 -14.6469 -14.6365
   -14.6185 -14.5354 -14.4965 -14.4894 -14.4770 -14.4705 -14.4429 -14.3805
   -14.2290 -14.2230 -14.2092 -14.1940 -14.1810 -14.1743 -13.9755 -13.9577
   -13.9455 -13.9129 -13.9068 -13.8829 -13.7966 -13.7720 -13.7508 -13.7189
   -13.7159 -13.6869 -13.6785 -13.6754 -13.6716 -13.6608 -13.6479 -13.6445
   -13.6227 -13.6092 -13.5739 -13.5679 -13.5602 -13.5588 -13.5506 -13.5466
   -13.5420 -13.5282 -13.5039 -13.4391 -13.4247 -13.3478 -13.3338 -13.3260
   -13.2670 -13.2226 -13.2029 -13.2027 -13.1991 -13.1940 -13.1883 -13.1759
   -13.1672 -13.1550 -13.1505 -13.1254 -13.1244 -13.1220 -13.1187 -13.1122
   -13.0993 -13.0989 -13.0807 -13.0771 -13.0746 -13.0614 -13.0576 -13.0575
   -13.0561 -13.0514 -13.0456 -13.0424 -13.0310 -13.0233 -13.0191 -12.9948
   -12.9784 -12.9721 -12.9713 -12.9689 -12.9607 -12.9494 -12.9404 -12.9399
   -12.9365 -12.9116 -12.9053 -12.9046 -12.8493 -12.8428 -12.7625 -12.7374
   -12.7080 -12.6962 -12.6826 -12.6826 -12.6733 -12.6699 -12.6370 -12.6283
   -12.6213 -12.5776 -12.5456 -12.5307 -12.5180 -12.5076 -12.4884 -12.4758
   -12.4644 -12.4627 -12.4506 -12.4269 -12.4229 -12.4174 -12.3844 -12.3166
   -12.2849 -12.2646 -12.2342 -12.2115 -12.1780 -12.1725 -12.1656 -12.1597
   -12.1506 -12.1475 -12.1288 -12.1107 -12.0842 -12.0809 -12.0621 -12.0588
   -12.0482 -12.0282 -12.0129 -11.9944 -11.9699 -11.9057 -11.9037 -11.7658
   -11.7632 -11.7405 -11.6921 -11.6673 -11.6606 -11.6124 -11.4973 -11.4459
   -11.3889 -11.3807 -11.3594 -11.3349 -11.3304 -11.3160 -11.3060 -11.2847
   -11.2603 -11.2511 -11.2358 -11.2170 -11.2073 -11.2062 -11.1946 -11.1677
   -11.1037 -11.1016 -11.0906 -11.0893 -11.0687 -11.0456 -11.0334 -11.0261
[...]
   -10.6827 -10.6690 -10.6083 -10.5933 -10.5836 -10.5661 -10.5390 -10.5249
   -10.5011 -10.4888 -10.4699 -10.4633 -10.4594 -10.4535 -10.4527 -10.4468
   -10.4320 -10.4238 -10.4106 -10.4008 -10.3939 -10.3848 -10.3833 -10.3821
   -10.3817 -10.3713 -10.3685 -10.3460 -10.3405 -10.3382 -10.3339 -10.3259
   -10.3162 -10.3104 -10.2995 -10.2942 -10.2903 -10.2886 -10.2823 -10.2796
   -10.2793 -10.2635 -10.2545 -10.2533 -10.2342 -10.2196 -10.2189 -10.2169
   -10.2161 -10.2031 -10.2015 -10.1942 -10.1833 -10.1679 -10.1669 -10.1511
   -10.1209 -10.1021 -10.0979 -10.0947 -10.0905 -10.0827 -10.0810 -10.0668
   -10.0536 -10.0524 -10.0337 -10.0264 -10.0261 -10.0246 -10.0155 -10.0119
   -10.0049 -10.0043 -10.0015  -9.9933  -9.9909  -9.9901  -9.9898  -9.9635
    -9.9571  -9.9540  -9.9507  -9.9447  -9.9397  -9.9358  -9.9264  -9.9263
    -9.9200  -9.9144  -9.9108  -9.8927  -9.8618  -9.8466  -9.8402  -9.8199
    -9.8185  -9.8005  -9.7265  -9.6904  -9.6172  -9.6062  -9.6051  -9.5854
    -9.5256  -9.5126  -9.3995  -9.3903  -9.3867  -9.3846  -9.3251  -9.3127
    -9.3070  -9.3051

     the Fermi energy is   -12.1495 ev

!    total energy              =  -21093.93501587 Ry
     Harris-Foulkes estimate   =  -21093.93501468 Ry
     estimated scf accuracy    <          5.6E-11 Ry

     The total energy is the sum of the following terms:

     one-electron contribution = -743273.56047378 Ry
     hartree contribution      =  371172.22784845 Ry
     xc contribution           =   -2234.14128835 Ry
     ewald contribution        =  358116.36295040 Ry
     Dispersion Correction     =      -1.39096757 Ry
     one-center paw contrib.   =   -4873.43497039 Ry
     smearing contrib. (-TS)   =       0.00188538 Ry

     total magnetization       =   161.11 Bohr mag/cell
     absolute magnetization    =   168.88 Bohr mag/cell

     convergence has been achieved in  23 iterations

     negative rho (up, down):  1.125E-02 1.223E-01

     Forces acting on atoms (cartesian axes, Ry/au):

     atom    1 type  1   force =     0.00049721   -0.00035225    0.00893289
     atom    2 type  1   force =     0.00181645   -0.00254337   -0.01231001
     atom    3 type  1   force =    -0.00043369   -0.00036963    0.00853966
     atom    4 type  1   force =     0.00054390    0.00036514   -0.00609137
     atom    5 type  1   force =    -0.00001907   -0.00001022   -0.00000002
     atom    6 type  1   force =     0.00000727   -0.00001413    0.00001247
     atom    7 type  1   force =     0.00001230   -0.00000598    0.00005318
     atom    8 type  1   force =    -0.00000806   -0.00001612   -0.00005101
     atom    9 type  1   force =    -0.00001173    0.00001135    0.00905625
     atom   10 type  1   force =    -0.00021144   -0.00015367    0.00864711
     atom   11 type  1   force =    -0.00044076    0.00138341   -0.00538349
     atom   12 type  1   force =     0.00094318    0.00077187   -0.00965500
     atom   13 type  1   force =    -0.00000288   -0.00000349   -0.00000224
     atom   14 type  1   force =     0.00000526   -0.00000089   -0.00000091
     atom   15 type  1   force =     0.00000396   -0.00004058    0.00002382
     atom   16 type  1   force =     0.00001412    0.00001637   -0.00001899
     atom   17 type  1   force =    -0.00048657   -0.00027616    0.00854770
     atom   18 type  1   force =     0.00055976    0.00039344   -0.00614184
     atom   19 type  1   force =     0.00044120    0.00035871    0.00853798
     atom   20 type  1   force =     0.00061300   -0.00082653   -0.01083809
     atom   21 type  1   force =     0.00000488    0.00000835    0.00005641
     atom   22 type  1   force =    -0.00001204   -0.00001706   -0.00005711
     atom   23 type  1   force =    -0.00001810   -0.00000613    0.00005536
     atom   24 type  1   force =     0.00008425   -0.00013023    0.00000492
     atom   25 type  1   force =     0.00001209    0.00000740    0.00768356
     atom   26 type  1   force =    -0.00067632    0.00093976    0.00961956
     atom   27 type  1   force =    -0.00007964   -0.00012969   -0.00504101
     atom   28 type  1   force =    -0.00113013    0.00091424   -0.00537960
     atom   29 type  1   force =    -0.00000373   -0.00000163    0.00002465
     atom   30 type  1   force =    -0.00000111   -0.00000357    0.00001683
     atom   31 type  1   force =     0.00003371    0.00000585    0.00005417
     atom   32 type  1   force =     0.00003223   -0.00002705    0.00002703
     atom   33 type  1   force =    -0.00048595    0.00033853    0.00889373
     atom   34 type  1   force =    -0.00053055   -0.00039061   -0.00613291
     atom   35 type  1   force =    -0.00018099    0.00056202    0.00891694
     atom   36 type  1   force =    -0.00194197    0.00272519   -0.01224491
     atom   37 type  1   force =     0.00000410    0.00001553   -0.00000023
     atom   38 type  1   force =     0.00000970    0.00000406   -0.00005532
     atom   39 type  1   force =    -0.00001874   -0.00000241    0.00000069
     atom   40 type  1   force =    -0.00002403    0.00002841    0.00004997
     atom   41 type  1   force =     0.00002219   -0.00003416    0.00794404
     atom   42 type  1   force =     0.00069125   -0.00093434    0.00971916
     atom   43 type  1   force =    -0.00104348   -0.00060770   -0.00964947
     atom   44 type  1   force =     0.00046561   -0.00138676   -0.00536340
     atom   45 type  1   force =    -0.00000451    0.00000254    0.00001389
     atom   46 type  1   force =    -0.00001049    0.00001056    0.00003151
     atom   47 type  1   force =    -0.00002467   -0.00000843   -0.00001833
     atom   48 type  1   force =    -0.00001196    0.00003727   -0.00002137
     atom   49 type  1   force =     0.00048866    0.00027564    0.00855735
     atom   50 type  1   force =    -0.00047094    0.00067973   -0.01089800
     atom   51 type  1   force =     0.00018221   -0.00059934    0.00892910
     atom   52 type  1   force =    -0.00052991   -0.00034796   -0.00610513
     atom   53 type  1   force =    -0.00000371   -0.00001970    0.00005444
     atom   54 type  1   force =    -0.00009109    0.00011867    0.00001178
     atom   55 type  1   force =     0.00001124    0.00001122   -0.00000030
     atom   56 type  1   force =     0.00001240   -0.00000565   -0.00004712
     atom   57 type  1   force =    -0.00003067   -0.00000100    0.00907566
     atom   58 type  1   force =     0.00020908    0.00015944    0.00863724
     atom   59 type  1   force =     0.00116082   -0.00087105   -0.00537346
     atom   60 type  1   force =     0.00016218    0.00005871   -0.00504936
     atom   61 type  1   force =    -0.00000013   -0.00000582   -0.00000155
     atom   62 type  1   force =    -0.00000773   -0.00000797   -0.00000066
     atom   63 type  1   force =    -0.00003709    0.00001650   -0.00001518
     atom   64 type  1   force =    -0.00002942   -0.00003963    0.00005153
     atom   65 type  2   force =    -0.00001335   -0.00001588    0.00008002
     atom   66 type  3   force =    -0.00001757   -0.00001314   -0.00001069

     Total force =     0.000327     Total SCF correction =     0.000037
     SCF correction compared to forces is large: reduce conv_thr to get better values

     bfgs converged in  17 scf cycles and  15 bfgs steps
     (criteria: energy <  7.3E-07 Ry, force <  3.9E-04 Ry/Bohr)

     End of BFGS Geometry Optimization

     Final energy   =  -21093.9350158695 Ry
Begin final coordinates

ATOMIC_POSITIONS (angstrom)
Fe       1.654912953   1.170200133   0.000000000    0   0   0
Fe       0.000000000   0.000000000   2.026984232    0   0   0
Fe       4.964738858   3.510600399   0.000000000    0   0   0
Fe       3.309825906   2.340400266   2.026984232    0   0   0
Fe       1.674033109   1.170165877   4.032809704
Fe       3.316146075   9.353255880   6.006522981
Fe       4.974650395   3.521771853   4.047923062
Fe       3.364293418   2.334855882   6.032893442
Fe       2.482363858   3.510600399   0.000000000    0   0   0
Fe       4.137287953   1.170200133   0.000000000    0   0   0
Fe       0.827450906   2.340400266   2.026984232    0   0   0
Fe       2.482375000   0.000000000   2.026984232    0   0   0
Fe       2.482556981   3.510839719   4.050525278
Fe       4.160384069   1.186698942   4.041969174
Fe       0.853368432   2.323652091   6.013711628
Fe       2.493218806   0.007520268   6.025983971
Fe       6.619662953   1.170200133   0.000000000    0   0   0
Fe       4.964750000   0.000000000   2.026984232    0   0   0
Fe       9.929488858   3.510600399   0.000000000    0   0   0
Fe       8.274575906   2.340400266   2.026984232    0   0   0
Fe       6.633585887   1.175933267   4.047851946
Fe       4.977837653   0.053329313   6.033371576
Fe       9.919990694   3.499703578   4.047824565
Fe       8.357433030   2.224141738   5.988767375
Fe       7.447113858   3.510600399   0.000000000    0   0   0
Fe       9.102037953   1.170200133   0.000000000    0   0   0
Fe       5.792200906   2.340400266   2.026984232    0   0   0
Fe       7.447125000   0.000000000   2.026984232    0   0   0
Fe       7.447402227   3.510708157   4.003175830
Fe       9.118997233   1.146715395   4.010769998
Fe       5.882606448   2.404446608   6.065721708
Fe      10.764767561   9.332261554   6.013679172
Fe       3.309814764   5.851000664   0.000000000    0   0   0
Fe       1.654901811   4.680800531   2.026984232    0   0   0
Fe       6.619640670   8.191400930   0.000000000    0   0   0
Fe       4.964727717   7.021200797   2.026984232    0   0   0
Fe       3.291038884   5.851391926   4.032671424
Fe      11.530656653   4.686648549   6.033338894
Fe       6.625966854   8.209536536   4.032612878
Fe       4.959110304   7.029764874   6.004187683
Fe       4.137265670   8.191400930   0.000000000    0   0   0
Fe       5.792189764   5.851000664   0.000000000    0   0   0
Fe      12.411852717   7.021200797   2.026984232    0   0   0
Fe       4.137276811   4.680800531   2.026984232    0   0   0
Fe       4.137250448   8.191880403   4.027403562
Fe       5.775894591   5.874451038   4.010232603
Fe      12.401736079   7.013909556   6.026028494
Fe       4.112068613   4.698221130   6.014151435
Fe       8.274564764   5.851000664   0.000000000    0   0   0
Fe       6.619651811   4.680800531   2.026984232    0   0   0
Fe      11.584390670   8.191400930   0.000000000    0   0   0
Fe       9.929477717   7.021200797   2.026984232    0   0   0
Fe       8.261245269   5.845763743   4.047890771
Fe       6.537499307   4.797979894   5.988641005
Fe      11.578475426   8.173728932   4.032811278
Fe       9.917202316   6.968698072   6.032670010
Fe       9.102015670   8.191400930   0.000000000    0   0   0
Fe      10.756939764   5.851000664   0.000000000    0   0   0
Fe       7.447102717   7.021200797   2.026984232    0   0   0
Fe       9.102026811   4.680800531   2.026984232    0   0   0
Fe       9.102162640   8.191728110   4.050471491
Fe      10.734223015   5.835061644   4.041946714
Fe       7.439742500   7.051507847   6.014091830
Fe       9.012692608   4.617612110   6.065553614
N        7.448355726   3.511745238   7.010114226
H        7.448546819   3.511837570   8.044000572
End final coordinates

     Writing output data file Fe_NH_paper_480c_ESM_pn5.save/

     General routines

     Parallel routines

   This run was terminated on:  19:32: 4  17Jun2022

   JOB DONE.