     Program PWSCF v.6.7MaX starts on  8Jul2022 at 17:28:49

     K-points division:     npool     =       8
     R & G space division:  proc/nbgrp/npool/nimage =      32
     Waiting for input...
     Reading input from standard input
Warning: card &CELL ignored
Warning: card / ignored

     Current dimensions of program PWSCF are:
     Max number of different atomic species (ntypx) = 10
     Max number of k-points (npk) =  40000
     Max angular momentum in pseudopotentials (lmaxx) =  3
     file Fe.pbe-spn-kjpaw_psl.0.2.1.UPF: wavefunction(s)  3D renormalized

     IMPORTANT: XC functional enforced from input :
     Exchange-correlation= PBE
                           (   1   4   3   4   0   0   0)
     Any further DFT definition will be discarded
     Please, verify this is what you really want

     Parameters for Dispersion (Grimme-D2) Correction:
       atom      VdW radius       C_6

        Fe         2.952        374.666
        N          2.640         42.670

     bravais-lattice index     =            0
     lattice parameter (alat)  =      18.7640  a.u.
     unit-cell volume          =   16360.3161 (a.u.)^3
     number of atoms/cell      =           65
     number of atomic types    =            2
     number of electrons       =      1029.00
     number of Kohn-Sham states=          618
     kinetic-energy cutoff     =      60.0000  Ry
     charge density cutoff     =     480.0000  Ry
     scf convergence threshold =      1.0E-08
     mixing beta               =       0.2000
     number of iterations used =           10  local-TF  mixing
     energy convergence thresh.=      7.3E-07
     force convergence thresh. =      3.9E-04
     Exchange-correlation= PBE
                           (   1   4   3   4   0   0   0)
     nstep                     =           50

     Effective Screening Medium Method
     Boundary Conditions: Metal-Slab-Metal
     field strength                   =     0.00 Ry/a.u.
     grid points for fit at edges     =        4

     celldm(1)=  18.764036  celldm(2)=   0.000000  celldm(3)=   0.000000
     celldm(4)=   0.000000  celldm(5)=   0.000000  celldm(6)=   0.000000

     crystal axes: (cart. coord. in units of alat)
               a(1) = (   1.000000   0.000000   0.000000 )
               a(2) = (   0.333330   0.942807   0.000000 )
               a(3) = (   0.000000   0.000000   2.626577 )

     reciprocal axes: (cart. coord. in units 2 pi/alat)
               b(1) = (  1.000000 -0.353551  0.000000 )
               b(2) = (  0.000000  1.060663  0.000000 )
               b(3) = (  0.000000  0.000000  0.380724 )

     PseudoPot. # 1 for Fe read from file:
     ../../SSSP/Fe.pbe-spn-kjpaw_psl.0.2.1.UPF
     MD5 check sum: e86618425769142926afa95317d90200
     Pseudo is Projector augmented-wave + core cor, Zval = 16.0
     Generated using "atomic" code by A. Dal Corso  v.5.0.99 svn rev. 10869
     Shape of augmentation charge: PSQ
     Using radial grid of 1191 points,  6 beta functions with:
                l(1) =   0
                l(2) =   0
                l(3) =   1
                l(4) =   1
                l(5) =   2
                l(6) =   2
     Q(r) pseudized with 0 coefficients

     PseudoPot. # 2 for N  read from file:
     ../../SSSP/N.pbe-n-radius_5.UPF
     MD5 check sum: 16739722b17309cd8fe442a2ace49922
     Pseudo is Ultrasoft + core correction, Zval =  5.0
     Generated using "atomic" code by A. Dal Corso  v.5.1
     Using radial grid of 1085 points,  4 beta functions with:
                l(1) =   0
                l(2) =   0
                l(3) =   1
                l(4) =   1
     Q(r) pseudized with 0 coefficients

     atomic species   valence    mass     pseudopotential
        Fe            16.00    55.84500     Fe( 1.00)
        N              5.00    14.00700     N ( 1.00)

     Starting magnetic structure
     atomic species   magnetization
        Fe           0.100
        N            0.100

     No symmetry found

   Cartesian axes

     site n.     atom                  positions (alat units)
         1           Fe  tau(   1) = (   0.1666663   0.1178509   0.0000000  )
         2           Fe  tau(   2) = (   0.0000000   0.0000000   0.2041376  )
         3           Fe  tau(   3) = (   0.4999989   0.3535526   0.0000000  )
         4           Fe  tau(   4) = (   0.3333326   0.2357017   0.2041376  )
         5           Fe  tau(   5) = (   0.1691509   0.1175918   0.4057210  )
         6           Fe  tau(   6) = (   0.3359522   0.9391646   0.6061093  )
         7           Fe  tau(   7) = (   0.4995928   0.3558378   0.4072377  )
         8           Fe  tau(   8) = (   0.3413025   0.2357524   0.6068274  )
         9           Fe  tau(   9) = (   0.2499989   0.3535526   0.0000000  )
        10           Fe  tau(  10) = (   0.4166663   0.1178509   0.0000000  )
        11           Fe  tau(  11) = (   0.0833326   0.2357017   0.2041376  )
        12           Fe  tau(  12) = (   0.2500000   0.0000000   0.2041376  )
        13           Fe  tau(  13) = (   0.2500221   0.3535767   0.4075582  )
        14           Fe  tau(  14) = (   0.4191385   0.1196340   0.4060773  )
        15           Fe  tau(  15) = (   0.0917092   0.2321912   0.6073070  )
        16           Fe  tau(  16) = (   0.2530842   0.0022036   0.6068541  )
        17           Fe  tau(  17) = (   0.6666663   0.1178509   0.0000000  )
        18           Fe  tau(  18) = (   0.5000000   0.0000000   0.2041376  )
        19           Fe  tau(  19) = (   0.9999989   0.3535526   0.0000000  )
        20           Fe  tau(  20) = (   0.8333326   0.2357017   0.2041376  )
        21           Fe  tau(  21) = (   0.6686442   0.1166971   0.4072016  )
        22           Fe  tau(  22) = (   0.5026806   0.0075466   0.6068559  )
        23           Fe  tau(  23) = (   1.0004742   0.3513324   0.4072043  )
        24           Fe  tau(  24) = (   0.8513514   0.2102900   0.6025819  )
        25           Fe  tau(  25) = (   0.7499989   0.3535526   0.0000000  )
        26           Fe  tau(  26) = (   0.9166663   0.1178509   0.0000000  )
        27           Fe  tau(  27) = (   0.5833326   0.2357017   0.2041376  )
        28           Fe  tau(  28) = (   0.7500000   0.0000000   0.2041376  )
        29           Fe  tau(  29) = (   0.7500396   0.3535476   0.4085199  )
        30           Fe  tau(  30) = (   0.9195929   0.1137564   0.4028232  )
        31           Fe  tau(  31) = (   0.5921731   0.2419271   0.6056380  )
        32           Fe  tau(  32) = (   1.0839170   0.9337880   0.6073025  )
        33           Fe  tau(  33) = (   0.3333315   0.5892543   0.0000000  )
        34           Fe  tau(  34) = (   0.1666652   0.4714034   0.2041376  )
        35           Fe  tau(  35) = (   0.6666640   0.8249560   0.0000000  )
        36           Fe  tau(  36) = (   0.4999978   0.7071052   0.2041376  )
        37           Fe  tau(  37) = (   0.3308852   0.5895436   0.4057372  )
        38           Fe  tau(  38) = (   1.1587370   0.4714367   0.6068584  )
        39           Fe  tau(  39) = (   0.6672467   0.8273890   0.4057381  )
        40           Fe  tau(  40) = (   0.4974095   0.7108217   0.6061843  )
        41           Fe  tau(  41) = (   0.4166640   0.8249560   0.0000000  )
        42           Fe  tau(  42) = (   0.5833315   0.5892543   0.0000000  )
        43           Fe  tau(  43) = (   0.2499978   0.7071052   0.2041376  )
        44           Fe  tau(  44) = (   0.4166652   0.4714034   0.2041376  )
        45           Fe  tau(  45) = (   0.4166815   0.8249743   0.4045874  )
        46           Fe  tau(  46) = (   0.5804294   0.5934022   0.4028539  )
        47           Fe  tau(  47) = (   1.2469491   0.7049804   0.6068441  )
        48           Fe  tau(  48) = (   0.4083601   0.4750129   0.6073567  )
        49           Fe  tau(  49) = (   0.8333315   0.5892543   0.0000000  )
        50           Fe  tau(  50) = (   0.6666652   0.4714034   0.2041376  )
        51           Fe  tau(  51) = (   1.1666640   0.8249560   0.0000000  )
        52           Fe  tau(  52) = (   0.9999978   0.7071052   0.2041376  )
        53           Fe  tau(  53) = (   0.8313559   0.5904323   0.4072444  )
        54           Fe  tau(  54) = (   0.6487279   0.4968482   0.6025772  )
        55           Fe  tau(  55) = (   1.1661202   0.8225591   0.4057152  )
        56           Fe  tau(  56) = (   0.9973563   0.6996610   0.6068236  )
        57           Fe  tau(  57) = (   0.9166640   0.8249560   0.0000000  )
        58           Fe  tau(  58) = (   1.0833315   0.5892543   0.0000000  )
        59           Fe  tau(  59) = (   0.7499978   0.7071052   0.2041376  )
        60           Fe  tau(  60) = (   0.9166652   0.4714034   0.2041376  )
        61           Fe  tau(  61) = (   0.9166742   0.8249767   0.4075569  )
        62           Fe  tau(  62) = (   1.0808694   0.5875468   0.4060803  )
        63           Fe  tau(  63) = (   0.7494236   0.7161996   0.6073634  )
        64           Fe  tau(  64) = (   0.9079309   0.4651926   0.6056468  )
        65           N   tau(  65) = (   0.7500415   0.3535723   0.6407974  )

     number of k points=    10  Methfessel-Paxton smearing, width (Ry)=  0.0100
                       cart. coord. in units 2pi/alat
        k(    1) = (   0.0000000   0.0000000   0.0000000), wk =   0.0625000
        k(    2) = (   0.0000000   0.2651656   0.0000000), wk =   0.1250000
        k(    3) = (   0.0000000  -0.5303313   0.0000000), wk =   0.0625000
        k(    4) = (   0.2500000  -0.0883878   0.0000000), wk =   0.1250000
        k(    5) = (   0.2500000   0.1767779   0.0000000), wk =   0.1250000
        k(    6) = (   0.2500000  -0.6187190   0.0000000), wk =   0.1250000
        k(    7) = (   0.2500000  -0.3535534   0.0000000), wk =   0.1250000
        k(    8) = (  -0.5000000   0.1767755   0.0000000), wk =   0.0625000
        k(    9) = (  -0.5000000   0.4419412   0.0000000), wk =   0.1250000
        k(   10) = (  -0.5000000  -0.3535558   0.0000000), wk =   0.0625000

     Check: negative core charge=   -0.000039
     Generating pointlists ...
     new r_m :   0.0741 (alat units)  1.3901 (a.u.) for type    1
     new r_m :   0.0741 (alat units)  1.3901 (a.u.) for type    2

     Initial potential from superposition of free atoms

     starting charge 1028.97194, renormalised to 1029.00000

     negative rho (up, down):  1.365E-02 1.117E-02
     Starting wfcs are  836 randomized atomic wfcs
     Checking if some PAW data can be deallocated...

     Self-consistent Calculation

     iteration #  1     ecut=    60.00 Ry     beta= 0.20
     Davidson diagonalization with overlap
     c_bands:  1 eigenvalues not converged
     ethr =  1.00E-04,  avg # of iterations = 18.1

     negative rho (up, down):  7.022E-03 5.636E-03

     total energy              =  -21092.15978571 Ry
     estimated scf accuracy    <      44.38628884 Ry

     total magnetization       =   132.88 Bohr mag/cell
     absolute magnetization    =   133.22 Bohr mag/cell

     iteration #  2     ecut=    60.00 Ry     beta= 0.20
     Davidson diagonalization with overlap
     ethr =  4.31E-03,  avg # of iterations =  1.0

[...]

     Magnetic moment per site:
[...]
   -89.5549 -89.5549 -89.5512 -89.5494 -89.5468 -89.5467 -89.5433 -89.5429
   -89.5416 -89.5413 -89.5389 -89.5368 -89.5364 -89.5336 -89.5329 -89.5327
   -89.5320 -89.5253 -89.5220 -89.5187 -89.5148 -89.5128 -89.5099 -89.5097
   -89.5074 -89.5070 -89.5053 -89.5038 -89.5014 -89.5009 -89.4988 -89.4963
   -89.4945 -89.4858 -89.4839 -89.4824 -89.4819 -89.4805 -89.4804 -89.4789
   -89.4779 -89.4777 -89.4762 -89.4760 -89.4623 -89.4585 -89.4573 -89.4547
   -56.8266 -56.8184 -56.2752 -56.2659 -56.1927 -56.1860 -56.1397 -56.1344
   -55.9361 -55.9281 -55.9149 -55.9123 -55.9063 -55.9062 -55.8946 -55.8716
   -55.8706 -55.8688 -55.8611 -55.8572 -55.8510 -55.8496 -55.8436 -55.8382
   -55.8369 -55.8363 -55.8334 -55.8283 -55.8269 -55.8223 -55.8211 -55.8177
   -55.8127 -55.8051 -55.8047 -55.8014 -55.8004 -55.7953 -55.7949 -55.7949
   -55.7927 -55.7918 -55.7898 -55.7863 -55.7821 -55.7747 -55.7733 -55.7726
   -55.7725 -55.7702 -55.7650 -55.7597 -55.7595 -55.7585 -55.7563 -55.7533
   -55.7523 -55.7518 -55.7500 -55.7498 -55.7477 -55.7475 -55.7437 -55.7430
   -55.7426 -55.7422 -55.7393 -55.7358 -55.7332 -55.7316 -55.7313 -55.7287
   -55.7189 -55.7103 -55.7032 -55.7025 -55.6980 -55.6935 -55.6914 -55.6858
   -55.6822 -55.6808 -55.6797 -55.6759 -55.6600 -55.6583 -55.6573 -55.6571
   -55.6521 -55.6462 -55.6445 -55.6439 -55.6423 -55.6419 -55.6374 -55.6360
   -55.6339 -55.6333 -55.6302 -55.6300 -55.6255 -55.6247 -55.6214 -55.6197
   -55.6196 -55.6147 -55.6090 -55.6085 -55.6076 -55.6019 -55.6012 -55.6011
   -55.6002 -55.6001 -55.5990 -55.5969 -55.5965 -55.5937 -55.5922 -55.5864
   -55.5846 -55.5836 -55.5756 -55.5735 -55.5732 -55.5709 -55.5702 -55.5696
   -55.5688 -55.5664 -55.5648 -55.5593 -55.5569 -55.5547 -55.5523 -55.5503
   -55.5493 -55.5479 -55.5466 -55.5451 -55.5447 -55.5440 -55.5410 -55.5406
   -55.5400 -55.5399 -55.5379 -55.5361 -55.5353 -55.5352 -55.5344 -55.5330
   -55.5326 -55.5303 -55.5297 -55.5291 -55.5255 -55.5246 -55.5237 -55.5206
   -55.5186 -55.5172 -55.5162 -55.5159 -55.5115 -55.5109 -55.5102 -55.5101
   -55.5099 -55.5087 -55.5086 -55.5062 -55.5054 -55.5052 -55.5050 -55.5037
   -55.5036 -55.5014 -55.4967 -55.4954 -55.4942 -55.4938 -55.4934 -55.4898
   -55.4871 -55.4867 -55.4860 -55.4819 -55.4815 -55.4795 -55.4762 -55.4736
   -20.1627 -11.5870 -11.5430 -11.0825 -10.9643 -10.6191 -10.4598 -10.2169
   -10.0735  -9.7748  -9.5901  -9.4277  -8.9821  -8.9274  -8.9164  -8.7991
    -8.5351  -8.4963  -8.1540  -8.1439  -8.1240  -8.0967  -8.0901  -8.0352
    -8.0203  -7.9949  -7.9595  -7.9469  -7.9268  -7.7903  -7.5728  -7.5678
    -7.5665  -7.5595  -7.5168  -7.4661  -7.3706  -7.2249  -7.1083  -7.1054
    -7.0978  -7.0679  -7.0458  -7.0423  -7.0369  -6.9956  -6.9664  -6.9437
    -6.9084  -6.8101  -6.8086  -6.7966  -6.7819  -6.7699  -6.7542  -6.5757
    -6.5593  -6.5331  -6.5329  -6.5064  -6.4857  -6.4587  -6.3051  -6.2787
    -6.2566  -6.2487  -6.1998  -6.1925  -6.1911  -6.1228  -6.0788  -6.0571
    -6.0410  -6.0171  -6.0067  -5.9953  -5.9947  -5.9712  -5.9705  -5.9536
    -5.9368  -5.8926  -5.8732  -5.8699  -5.8642  -5.8638  -5.8561  -5.8550
    -5.8328  -5.8271  -5.8004  -5.7807  -5.6889  -5.6579  -5.6544  -5.6463
    -5.6459  -5.5647  -5.5533  -5.5275  -5.5152  -5.5087  -5.5080  -5.4921
    -5.4847  -5.4782  -5.4766  -5.4398  -5.4380  -5.4273  -5.4175  -5.4172
    -5.4094  -5.4085  -5.3932  -5.3929  -5.3844  -5.3793  -5.3745  -5.3695
    -5.3445  -5.3435  -5.3421  -5.3354  -5.3347  -5.3257  -5.3157  -5.3032
    -5.2940  -5.2727  -5.2681  -5.2670  -5.2665  -5.2575  -5.2538  -5.2464
    -5.2399  -5.2157  -5.2146  -5.1988  -5.0852  -5.0460  -5.0399  -5.0264
    -5.0137  -5.0120  -5.0001  -4.9970  -4.9886  -4.9767  -4.9663  -4.9537
    -4.8898  -4.8738  -4.8576  -4.8350  -4.8347  -4.8277  -4.8121  -4.8032
    -4.7973  -4.7689  -4.7556  -4.7500  -4.7066  -4.6835  -4.6637  -4.6585
    -4.6200  -4.5962  -4.5928  -4.5428  -4.5054  -4.4846  -4.4752  -4.4608
    -4.4499  -4.4405  -4.4349  -4.4329  -4.4166  -4.3942  -4.3810  -4.3689
    -4.3631  -4.3544  -4.3174  -4.3154  -4.1208  -4.1163  -4.1053  -4.1026
    -3.9986  -3.9722  -3.9690  -3.8562  -3.8130  -3.8011  -3.7829  -3.7155
    -3.6932  -3.6755  -3.6734  -3.6331  -3.6079  -3.5891  -3.5873  -3.5634
    -3.5428  -3.5240  -3.4701  -3.4465  -3.4410  -3.4394  -3.4330  -3.4178
    -3.3552  -3.3361  -3.3245  -3.3185  -3.3114  -3.3055  -3.2622  -3.2425
[...]
    -2.8875  -2.8460  -2.8415  -2.8367  -2.8343  -2.8173  -2.7895  -2.7867
    -2.7851  -2.7649  -2.7621  -2.7612  -2.7322  -2.7314  -2.7171  -2.7159
    -2.7090  -2.7019  -2.6970  -2.6927  -2.6775  -2.6761  -2.6701  -2.6598
    -2.6512  -2.6292  -2.6271  -2.6258  -2.6156  -2.6130  -2.5991  -2.5987
    -2.5949  -2.5916  -2.5867  -2.5837  -2.5630  -2.5584  -2.5557  -2.5518
    -2.5415  -2.5221  -2.5210  -2.5175  -2.5108  -2.5080  -2.5039  -2.5024
    -2.4904  -2.4699  -2.4638  -2.4618  -2.4415  -2.4219  -2.4173  -2.4087
    -2.3970  -2.3955  -2.3894  -2.3809  -2.3668  -2.3610  -2.3515  -2.3328
    -2.3321  -2.3199  -2.3157  -2.3131  -2.3029  -2.2984  -2.2911  -2.2871
    -2.2837  -2.2798  -2.2783  -2.2704  -2.2637  -2.2571  -2.2416  -2.2355
    -2.2332  -2.2245  -2.2189  -2.2122  -2.2048  -2.1984  -2.1728  -2.1565
    -2.1492  -2.1472  -2.1471  -2.1159  -2.1138  -2.1023  -1.9697  -1.9474
    -1.9038  -1.9032  -1.8654  -1.7877  -1.7020  -1.7011  -1.6835  -1.6760
    -1.6456  -1.6317  -1.6241  -1.6237  -1.5972  -1.5902  -1.5808  -1.3650
    -1.3291  -1.3235

     the Fermi energy is    -4.4456 ev

!    total energy              =  -21092.54090901 Ry
     estimated scf accuracy    <          8.9E-11 Ry
     smearing contrib. (-TS)   =       0.00351622 Ry
     internal energy E=F+TS    =  -21092.54442523 Ry

     The total energy is F=E-TS. E is the sum of the following terms:
     one-electron contribution = -742925.76957290 Ry
     hartree contribution      =  371289.44042222 Ry
     xc contribution           =   -2233.60911052 Ry
     ewald contribution        =  357652.22943285 Ry
     Dispersion Correction     =      -1.38901982 Ry
     one-center paw contrib.   =   -4873.44657706 Ry

     total magnetization       =   160.85 Bohr mag/cell
     absolute magnetization    =   167.63 Bohr mag/cell

     convergence has been achieved in  15 iterations

     negative rho (up, down):  1.200E-02 1.594E-02

     Forces acting on atoms (cartesian axes, Ry/au):

     atom    1 type  1   force =     0.00008538    0.00063605    0.00902717
     atom    2 type  1   force =     0.00293776   -0.00413436   -0.01556986
     atom    3 type  1   force =    -0.00075374   -0.00061234    0.00825152
     atom    4 type  1   force =     0.00058393    0.00099454   -0.00829311
     atom    5 type  1   force =     0.00003985    0.00000022    0.00002242
     atom    6 type  1   force =     0.00000851   -0.00001649   -0.00005700
     atom    7 type  1   force =    -0.00000616   -0.00002740    0.00005695
     atom    8 type  1   force =     0.00001933   -0.00003883   -0.00002363
     atom    9 type  1   force =     0.00002911   -0.00001787    0.00836763
     atom   10 type  1   force =    -0.00071349   -0.00051787    0.00888852
     atom   11 type  1   force =     0.00091603   -0.00045787   -0.00826126
     atom   12 type  1   force =     0.00063031    0.00049952   -0.01260416
     atom   13 type  1   force =     0.00000084   -0.00000487    0.00000276
     atom   14 type  1   force =    -0.00000663   -0.00000118    0.00003037
     atom   15 type  1   force =     0.00004573    0.00003363   -0.00009121
     atom   16 type  1   force =     0.00002046    0.00000930   -0.00002715
     atom   17 type  1   force =    -0.00084871   -0.00044576    0.00824416
     atom   18 type  1   force =     0.00113011    0.00023073   -0.00827670
     atom   19 type  1   force =     0.00070211    0.00064960    0.00822262
     atom   20 type  1   force =    -0.00102765    0.00148534   -0.00351554
     atom   21 type  1   force =    -0.00002678   -0.00000714    0.00005200
     atom   22 type  1   force =    -0.00003216    0.00001826   -0.00003612
     atom   23 type  1   force =     0.00001192    0.00002032    0.00005066
     atom   24 type  1   force =     0.00001688   -0.00003254    0.00004015
     atom   25 type  1   force =     0.00002501   -0.00002526    0.00802242
     atom   26 type  1   force =    -0.00117502    0.00166236    0.00779529
     atom   27 type  1   force =     0.00123808    0.00082225   -0.00384628
     atom   28 type  1   force =     0.00013679   -0.00100224   -0.00826448
     atom   29 type  1   force =    -0.00000154   -0.00000357    0.00015442
     atom   30 type  1   force =    -0.00002245    0.00002709    0.00007098
     atom   31 type  1   force =     0.00003551    0.00001746   -0.00002120
     atom   32 type  1   force =    -0.00004954   -0.00003867   -0.00009010
     atom   33 type  1   force =    -0.00009119   -0.00064556    0.00902688
     atom   34 type  1   force =    -0.00058161   -0.00097922   -0.00828058
     atom   35 type  1   force =     0.00063257   -0.00013106    0.00903227
     atom   36 type  1   force =    -0.00298699    0.00421599   -0.01553980
     atom   37 type  1   force =    -0.00004080   -0.00000022    0.00001560
     atom   38 type  1   force =    -0.00001317    0.00003584   -0.00003640
     atom   39 type  1   force =     0.00001178    0.00003611    0.00001414
     atom   40 type  1   force =    -0.00001558    0.00001683   -0.00006430
     atom   41 type  1   force =     0.00002907   -0.00003066    0.00955389
     atom   42 type  1   force =     0.00119092   -0.00167319    0.00782653
     atom   43 type  1   force =    -0.00067916   -0.00041187   -0.01261138
     atom   44 type  1   force =    -0.00092267    0.00047756   -0.00819774
     atom   45 type  1   force =    -0.00000210   -0.00000056    0.00002011
     atom   46 type  1   force =     0.00001836   -0.00003036    0.00008160
     atom   47 type  1   force =    -0.00002220   -0.00001802   -0.00002187
     atom   48 type  1   force =    -0.00005199   -0.00003413   -0.00009547
     atom   49 type  1   force =     0.00082607    0.00050025    0.00825855
     atom   50 type  1   force =     0.00109757   -0.00154117   -0.00348271
     atom   51 type  1   force =    -0.00063253    0.00012838    0.00904577
     atom   52 type  1   force =    -0.00112527   -0.00020028   -0.00829338
     atom   53 type  1   force =     0.00002527   -0.00000352    0.00005907
     atom   54 type  1   force =    -0.00002043    0.00002592    0.00003733
     atom   55 type  1   force =    -0.00001824   -0.00003918    0.00002090
     atom   56 type  1   force =     0.00002416   -0.00003210   -0.00002020
     atom   57 type  1   force =    -0.00000549   -0.00003875    0.00837868
     atom   58 type  1   force =     0.00071443    0.00048838    0.00888859
     atom   59 type  1   force =    -0.00013367    0.00104106   -0.00819410
     atom   60 type  1   force =    -0.00118213   -0.00087495   -0.00384625
     atom   61 type  1   force =    -0.00000068   -0.00000497    0.00000124
     atom   62 type  1   force =    -0.00000065    0.00000411    0.00002889
     atom   63 type  1   force =     0.00004506    0.00003149   -0.00009824
     atom   64 type  1   force =    -0.00003646   -0.00003313   -0.00002068
     atom   65 type  2   force =    -0.00000206   -0.00000141   -0.00009191

     Total force =     0.000390     Total SCF correction =     0.000038
     Energy error            =      4.6E-07
     Gradient error          =      1.5E-04

     bfgs converged in  11 scf cycles and  10 bfgs steps
     (criteria: energy <  7.3E-07 Ry, force <  3.9E-04 Ry/Bohr)

     End of BFGS Geometry Optimization

     Final energy   =  -21092.5409090053 Ry

     File ./Fe_N_paper_480c_ESM_std.bfgs deleted, as requested
Begin final coordinates

ATOMIC_POSITIONS (angstrom)
Fe            1.6549129530        1.1702001330        0.0000000000    0   0   0
Fe            0.0000000000        0.0000000000        2.0269842320    0   0   0
Fe            4.9647388580        3.5106003990        0.0000000000    0   0   0
Fe            3.3098259060        2.3404002660        2.0269842320    0   0   0
Fe            1.6791508671        1.1676650646        4.0278446408
Fe            3.3355283151        9.3257260947        6.0155172263
Fe            4.9607531054        3.5334202444        4.0421604136
Fe            3.3882877060        2.3413775927        6.0226317061
Fe            2.4823638580        3.5106003990        0.0000000000    0   0   0
Fe            4.1372879530        1.1702001330        0.0000000000    0   0   0
Fe            0.8274509060        2.3404002660        2.0269842320    0   0   0
Fe            2.4823750000        0.0000000000        2.0269842320    0   0   0
Fe            2.4825411973        3.5107955351        4.0458606822
Fe            4.1616463146        1.1876875804        4.0313349438
Fe            0.9088390929        2.3049244501        6.0289881627
Fe            2.5121197549        0.0212114827        6.0229141651
Fe            6.6196629530        1.1702001330        0.0000000000    0   0   0
Fe            4.9647500000        0.0000000000        2.0269842320    0   0   0
Fe            9.9294888580        3.5106003990        0.0000000000    0   0   0
Fe            8.2745759060        2.3404002660        2.0269842320    0   0   0
Fe            6.6394809135        1.1587463070        4.0418414598
Fe            4.9916062516        0.0740578561        6.0230587994
Fe            9.9340528471        3.4883216143        4.0418662349
Fe            8.4532527669        2.0882706867        5.9785224708
Fe            7.4471138580        3.5106003990        0.0000000000    0   0   0
Fe            9.1020379530        1.1702001330        0.0000000000    0   0   0
Fe            5.7922009060        2.3404002660        2.0269842320    0   0   0
Fe            7.4471250000        0.0000000000        2.0269842320    0   0   0
Fe            7.4474795160        3.5105004245        4.0540595830
Fe            9.1311833333        1.1293287908        3.9972293113
Fe            5.8797593741        2.4020946850        6.0103020946
Fe           10.7637633483        9.2734177282        6.0289454256
Fe            3.3098147640        5.8510006640        0.0000000000    0   0   0
Fe            1.6549018110        4.6808005310        2.0269842320    0   0   0
Fe            6.6196406700        8.1914009300        0.0000000000    0   0   0
Fe            4.9647277170        7.0212007970        2.0269842320    0   0   0
Fe            3.2859237434        5.8537225877        4.0280610800
Fe           11.5062787090        4.6804946918        6.0230987336
Fe            6.6253510073        8.2150800250        4.0280733710
Fe            4.9392852009        7.0576057162        6.0164577555
Fe            4.1372656700        8.1914009300        0.0000000000    0   0   0
Fe            5.7921897640        5.8510006640        0.0000000000    0   0   0
Fe            2.4823527170        7.0212007970        2.0269842320    0   0   0
Fe            4.1372768110        4.6808005310        2.0269842320    0   0   0
Fe            4.1374249248        8.1915157445        4.0161630814
Fe            5.7632340461        5.8923152924        3.9975332828
Fe           12.3823788716        7.0006016182        6.0228152336
Fe            4.0565955583        4.7170887814        6.0295407984
Fe            8.2745647640        5.8510006640        0.0000000000    0   0   0
Fe            6.6196518110        4.6808005310        2.0269842320    0   0   0
Fe           11.5843906700        8.1914009300        0.0000000000    0   0   0
Fe            9.9294777170        7.0212007970        2.0269842320    0   0   0
Fe            8.2547310746        5.8626209076        4.0422037523
Fe            6.4417745658        4.9329618432        5.9784749945
Fe           11.5790162754        8.1679415255        4.0277994703
Fe            9.9028928240        6.9479458433        6.0225967977
Fe            9.1020156700        8.1914009300        0.0000000000    0   0   0
Fe           10.7569397640        5.8510006640        0.0000000000    0   0   0
Fe            7.4471027170        7.0212007970        2.0269842320    0   0   0
Fe            9.1020268110        4.6808005310        2.0269842320    0   0   0
Fe            9.1020888176        8.1915664682        4.0458712794
Fe           10.7326806618        5.8340717809        4.0313549044
Fe            7.4402452721        7.1098518470        6.0296046854
Fe            9.0153176466        4.6191922057        6.0103661450
N             7.4475311206        3.5106418407        6.3565784821
End final coordinates

     Writing output data file ./Fe_N_paper_480c_ESM_std.save/

     General routines

     Parallel routines

   This run was terminated on:  23:14: 9   8Jul2022

   JOB DONE.