     Program PWSCF v.6.7MaX starts on 16Jun2022 at 19:24:40

     K-points division:     npool     =       8
     R & G space division:  proc/nbgrp/npool/nimage =      32
     Waiting for input...
     Reading input from standard input
Warning: card &CELL ignored
Warning: card / ignored

     Current dimensions of program PWSCF are:
     Max number of different atomic species (ntypx) = 10
     Max number of k-points (npk) =  40000
     Max angular momentum in pseudopotentials (lmaxx) =  3
     file Fe.pbe-spn-kjpaw_psl.0.2.1.UPF: wavefunction(s)  3D renormalized

     IMPORTANT: XC functional enforced from input :
     Exchange-correlation= PBE
                           (   1   4   3   4   0   0   0)
     Any further DFT definition will be discarded
     Please, verify this is what you really want

     Parameters for Dispersion (Grimme-D2) Correction:
       atom      VdW radius       C_6

        Fe         2.952        374.666
        H          1.892          4.857

     bravais-lattice index     =            0
     lattice parameter (alat)  =      18.7640  a.u.
     unit-cell volume          =   16360.3161 (a.u.)^3
     number of atoms/cell      =           65
     number of atomic types    =            2
     number of electrons       =      1025.00
     number of Kohn-Sham states=          616
     kinetic-energy cutoff     =      60.0000  Ry
     charge density cutoff     =     480.0000  Ry
     scf convergence threshold =      1.0E-08
     mixing beta               =       0.2000
     number of iterations used =           10  local-TF  mixing
     energy convergence thresh.=      7.3E-07
     force convergence thresh. =      3.9E-04
     Exchange-correlation= PBE
                           (   1   4   3   4   0   0   0)
     nstep                     =           50

     Effective Screening Medium Method
     Boundary Conditions: Metal-Slab-Metal
     field strength                   =     0.02 Ry/a.u.
     grid points for fit at edges     =        4

     celldm(1)=  18.764036  celldm(2)=   0.000000  celldm(3)=   0.000000
     celldm(4)=   0.000000  celldm(5)=   0.000000  celldm(6)=   0.000000

     crystal axes: (cart. coord. in units of alat)
               a(1) = (   1.000000   0.000000   0.000000 )
               a(2) = (   0.333330   0.942807   0.000000 )
               a(3) = (   0.000000   0.000000   2.626577 )

     reciprocal axes: (cart. coord. in units 2 pi/alat)
               b(1) = (  1.000000 -0.353551  0.000000 )
               b(2) = (  0.000000  1.060663  0.000000 )
               b(3) = (  0.000000  0.000000  0.380724 )

     PseudoPot. # 1 for Fe read from file:
     ../../SSSP/Fe.pbe-spn-kjpaw_psl.0.2.1.UPF
     MD5 check sum: e86618425769142926afa95317d90200
     Pseudo is Projector augmented-wave + core cor, Zval = 16.0
     Generated using "atomic" code by A. Dal Corso  v.5.0.99 svn rev. 10869
     Shape of augmentation charge: PSQ
     Using radial grid of 1191 points,  6 beta functions with:
                l(1) =   0
                l(2) =   0
                l(3) =   1
                l(4) =   1
                l(5) =   2
                l(6) =   2
     Q(r) pseudized with 0 coefficients

     PseudoPot. # 2 for H  read from file:
     ../../SSSP/H.pbe-rrkjus_psl.1.0.0.UPF
     MD5 check sum: f52b6d4d1c606e5624b1dc7b2218f220
     Pseudo is Ultrasoft, Zval =  1.0
     Generated using "atomic" code by A. Dal Corso  v.5.1
     Using radial grid of  929 points,  2 beta functions with:
                l(1) =   0
                l(2) =   0
     Q(r) pseudized with 0 coefficients

     atomic species   valence    mass     pseudopotential
        Fe            16.00    55.84500     Fe( 1.00)
        H              1.00     1.00800     H ( 1.00)

     Starting magnetic structure
     atomic species   magnetization
        Fe           0.100
        H            0.100

     No symmetry found

   Cartesian axes

     site n.     atom                  positions (alat units)
         1           Fe  tau(   1) = (   0.1666663   0.1178509   0.0000000  )
         2           Fe  tau(   2) = (   0.0000000   0.0000000   0.2041376  )
         3           Fe  tau(   3) = (   0.4999989   0.3535526   0.0000000  )
         4           Fe  tau(   4) = (   0.3333326   0.2357017   0.2041376  )
         5           Fe  tau(   5) = (   0.1662697   0.1176895   0.4057409  )
         6           Fe  tau(   6) = (   0.3328001   0.9435636   0.6055491  )
         7           Fe  tau(   7) = (   0.4998147   0.3534052   0.4059474  )
         8           Fe  tau(   8) = (   0.3323733   0.2357733   0.6047738  )
         9           Fe  tau(   9) = (   0.2499989   0.3535526   0.0000000  )
        10           Fe  tau(  10) = (   0.4166663   0.1178509   0.0000000  )
        11           Fe  tau(  11) = (   0.0833326   0.2357017   0.2041376  )
        12           Fe  tau(  12) = (   0.2500000   0.0000000   0.2041376  )
        13           Fe  tau(  13) = (   0.2498711   0.3536030   0.4058033  )
        14           Fe  tau(  14) = (   0.4164180   0.1176920   0.4057822  )
        15           Fe  tau(  15) = (   0.0832191   0.2359435   0.6052304  )
        16           Fe  tau(  16) = (   0.2494796  -0.0002804   0.6058105  )
        17           Fe  tau(  17) = (   0.6666663   0.1178509   0.0000000  )
        18           Fe  tau(  18) = (   0.5000000   0.0000000   0.2041376  )
        19           Fe  tau(  19) = (   0.9999989   0.3535526   0.0000000  )
        20           Fe  tau(  20) = (   0.8333326   0.2357017   0.2041376  )
        21           Fe  tau(  21) = (   0.6664727   0.1177137   0.4059627  )
        22           Fe  tau(  22) = (   0.4996850  -0.0009120   0.6047927  )
        23           Fe  tau(  23) = (   1.0001387   0.3537175   0.4055941  )
        24           Fe  tau(  24) = (   0.8333669   0.2359605   0.6057390  )
        25           Fe  tau(  25) = (   0.7499989   0.3535526   0.0000000  )
        26           Fe  tau(  26) = (   0.9166663   0.1178509   0.0000000  )
        27           Fe  tau(  27) = (   0.5833326   0.2357017   0.2041376  )
        28           Fe  tau(  28) = (   0.7500000   0.0000000   0.2041376  )
        29           Fe  tau(  29) = (   0.7498303   0.3534117   0.4051083  )
        30           Fe  tau(  30) = (   0.9162045   0.1181762   0.4063200  )
        31           Fe  tau(  31) = (   0.5816774   0.2345372   0.6051845  )
        32           Fe  tau(  32) = (   1.0836559   0.9433092   0.6053010  )
        33           Fe  tau(  33) = (   0.3333315   0.5892543   0.0000000  )
        34           Fe  tau(  34) = (   0.1666652   0.4714034   0.2041376  )
        35           Fe  tau(  35) = (   0.6666640   0.8249560   0.0000000  )
        36           Fe  tau(  36) = (   0.4999978   0.7071052   0.2041376  )
        37           Fe  tau(  37) = (   0.3335099   0.5893999   0.4057975  )
        38           Fe  tau(  38) = (   1.1664688   0.4719779   0.6050723  )
        39           Fe  tau(  39) = (   0.6663302   0.8247145   0.4057247  )
        40           Fe  tau(  40) = (   0.5004414   0.7064783   0.6055720  )
        41           Fe  tau(  41) = (   0.4166640   0.8249560   0.0000000  )
        42           Fe  tau(  42) = (   0.5833315   0.5892543   0.0000000  )
        43           Fe  tau(  43) = (   0.2499978   0.7071052   0.2041376  )
        44           Fe  tau(  44) = (   0.4166652   0.4714034   0.2041376  )
        45           Fe  tau(  45) = (   0.4165633   0.8249570   0.4059715  )
        46           Fe  tau(  46) = (   0.5834503   0.5887573   0.4063175  )
        47           Fe  tau(  47) = (   1.2504322   0.7074892   0.6054524  )
        48           Fe  tau(  48) = (   0.4172520   0.4716065   0.6052145  )
        49           Fe  tau(  49) = (   0.8333315   0.5892543   0.0000000  )
        50           Fe  tau(  50) = (   0.6666652   0.4714034   0.2041376  )
        51           Fe  tau(  51) = (   1.1666640   0.8249560   0.0000000  )
        52           Fe  tau(  52) = (   0.9999978   0.7071052   0.2041376  )
        53           Fe  tau(  53) = (   0.8335324   0.5893212   0.4055762  )
        54           Fe  tau(  54) = (   0.6669143   0.4713640   0.6056979  )
        55           Fe  tau(  55) = (   1.1668191   0.8251492   0.4058129  )
        56           Fe  tau(  56) = (   1.0004083   0.7067435   0.6050629  )
        57           Fe  tau(  57) = (   0.9166640   0.8249560   0.0000000  )
        58           Fe  tau(  58) = (   1.0833315   0.5892543   0.0000000  )
        59           Fe  tau(  59) = (   0.7499978   0.7071052   0.2041376  )
        60           Fe  tau(  60) = (   0.9166652   0.4714034   0.2041376  )
        61           Fe  tau(  61) = (   0.9166501   0.8248468   0.4058055  )
        62           Fe  tau(  62) = (   1.0834511   0.5893603   0.4058537  )
        63           Fe  tau(  63) = (   0.7501039   0.7069474   0.6051404  )
        64           Fe  tau(  64) = (   0.9170196   0.4716573   0.6047425  )
        65           H   tau(  65) = (   0.7924110   0.3835857   0.6996458  )

     number of k points=    10  Methfessel-Paxton smearing, width (Ry)=  0.0100
                       cart. coord. in units 2pi/alat
        k(    1) = (   0.0000000   0.0000000   0.0000000), wk =   0.0625000
        k(    2) = (   0.0000000   0.2651656   0.0000000), wk =   0.1250000
        k(    3) = (   0.0000000  -0.5303313   0.0000000), wk =   0.0625000
        k(    4) = (   0.2500000  -0.0883878   0.0000000), wk =   0.1250000
        k(    5) = (   0.2500000   0.1767779   0.0000000), wk =   0.1250000
        k(    6) = (   0.2500000  -0.6187190   0.0000000), wk =   0.1250000
        k(    7) = (   0.2500000  -0.3535534   0.0000000), wk =   0.1250000
        k(    8) = (  -0.5000000   0.1767755   0.0000000), wk =   0.0625000
        k(    9) = (  -0.5000000   0.4419412   0.0000000), wk =   0.1250000
        k(   10) = (  -0.5000000  -0.3535558   0.0000000), wk =   0.0625000

     Check: negative core charge=   -0.000039
     Generating pointlists ...
     new r_m :   0.0741 (alat units)  1.3907 (a.u.) for type    1
     new r_m :   0.0741 (alat units)  1.3907 (a.u.) for type    2

     Initial potential from superposition of free atoms

     starting charge 1024.97193, renormalised to 1025.00000

     negative rho (up, down):  1.363E-02 1.115E-02
     Starting wfcs are  833 randomized atomic wfcs
     Checking if some PAW data can be deallocated...

     Self-consistent Calculation

     iteration #  1     ecut=    60.00 Ry     beta= 0.20
     Davidson diagonalization with overlap
     ethr =  1.00E-04,  avg # of iterations = 18.4

     negative rho (up, down):  8.279E-03 6.790E-03

     total energy              =  -21056.76862073 Ry
     estimated scf accuracy    <    1284.94138107 Ry

     total magnetization       =    66.91 Bohr mag/cell
     absolute magnetization    =    68.78 Bohr mag/cell

[...]

     iteration # 25     ecut=    60.00 Ry     beta= 0.20
     Davidson diagonalization with overlap
     c_bands:  1 eigenvalues not converged
     c_bands:  2 eigenvalues not converged
     ethr =  1.59E-06,  avg # of iterations = 15.7

[...]

     Magnetic moment per site:
[...]
   -85.9328 -85.9311 -85.9309 -85.9285 -85.9277 -85.9265 -85.9264 -85.9244
   -85.9219 -85.9214 -85.9122 -85.9071 -85.9068 -85.9055 -85.9053 -85.9049
   -85.9048 -85.9046 -85.9045 -85.9033 -85.9030 -85.9027 -85.9024 -85.9009
   -85.8943 -85.8844 -85.8838 -85.8833 -85.8827 -85.8819 -85.8811 -85.8797
   -52.3370 -52.3066 -52.2795 -52.2704 -52.2691 -52.2679 -52.2663 -52.2635
   -52.2604 -52.2587 -52.2582 -52.2581 -52.2565 -52.2550 -52.2510 -52.2469
   -52.2463 -52.2448 -52.2444 -52.2433 -52.2399 -52.2390 -52.2346 -52.2305
   -52.2293 -52.2269 -52.2239 -52.2236 -52.2169 -52.2158 -52.2148 -52.2138
   -52.2049 -52.2039 -52.2005 -52.1913 -52.1903 -52.1882 -52.1849 -52.1838
   -52.1824 -52.1808 -52.1791 -52.1791 -52.1780 -52.1776 -52.1770 -52.1765
   -52.1738 -52.1730 -52.1700 -52.1690 -52.1687 -52.1678 -52.1656 -52.1650
   -52.1646 -52.1635 -52.1630 -52.1622 -52.1618 -52.1603 -52.1395 -52.1359
   -52.1254 -52.1235 -52.1209 -52.1166 -52.1149 -52.1124 -52.1091 -52.1032
   -52.0996 -52.0978 -52.0940 -52.0894 -52.0840 -52.0812 -52.0705 -52.0700
   -52.0651 -52.0649 -52.0642 -52.0596 -52.0590 -52.0584 -52.0576 -52.0565
   -52.0541 -52.0520 -52.0511 -52.0507 -52.0504 -52.0486 -52.0432 -52.0388
   -52.0357 -52.0345 -52.0301 -52.0288 -52.0276 -52.0276 -52.0248 -52.0242
   -52.0230 -52.0226 -52.0223 -52.0129 -52.0127 -52.0113 -52.0103 -52.0092
   -52.0076 -52.0042 -51.9988 -51.9971 -51.9929 -51.9918 -51.9917 -51.9858
   -51.9852 -51.9843 -51.9833 -51.9820 -51.9789 -51.9763 -51.9752 -51.9739
   -51.9720 -51.9710 -51.9676 -51.9672 -51.9629 -51.9611 -51.9603 -51.9600
   -51.9590 -51.9584 -51.9575 -51.9566 -51.9548 -51.9542 -51.9538 -51.9529
   -51.9524 -51.9511 -51.9503 -51.9498 -51.9484 -51.9427 -51.9418 -51.9408
   -51.9390 -51.9388 -51.9382 -51.9381 -51.9375 -51.9357 -51.9354 -51.9335
   -51.9324 -51.9323 -51.9316 -51.9305 -51.9296 -51.9289 -51.9285 -51.9281
   -51.9268 -51.9254 -51.9235 -51.9220 -51.9213 -51.9188 -51.9181 -51.9178
   -51.9176 -51.9173 -51.9169 -51.9166 -51.9094 -51.9085 -51.9065 -51.9044
   -51.9034 -51.9027 -51.9024 -51.9007 -51.8991 -51.8978 -51.8965 -51.8961
    -8.0556  -7.9730  -7.4950  -7.3878  -7.0771  -6.6877  -6.3973  -6.1443
    -5.8231  -5.3851  -5.3851  -5.3829  -5.3550  -4.9842  -4.8203  -4.5434
    -4.5427  -4.5385  -4.5332  -4.5321  -4.5129  -4.4500  -4.4034  -4.4006
    -4.4002  -4.3990  -4.2226  -3.9781  -3.9776  -3.9764  -3.9762  -3.9742
    -3.8688  -3.7679  -3.7422  -3.5093  -3.4954  -3.4790  -3.4775  -3.4743
    -3.4216  -3.4129  -3.4036  -3.3782  -3.3744  -3.3706  -3.2874  -3.2085
    -3.2064  -3.1964  -3.1893  -3.1784  -3.1239  -2.9345  -2.9325  -2.9266
    -2.9254  -2.9206  -2.8879  -2.7075  -2.6778  -2.6566  -2.6447  -2.6006
    -2.5994  -2.4968  -2.4871  -2.4145  -2.4136  -2.4120  -2.4099  -2.4044
    -2.3853  -2.3831  -2.3720  -2.3712  -2.3644  -2.2851  -2.2812  -2.2805
    -2.2764  -2.2763  -2.2743  -2.2739  -2.2708  -2.2680  -2.2675  -2.2660
    -2.1668  -2.0670  -2.0584  -2.0432  -2.0423  -1.9168  -1.9156  -1.9139
    -1.9101  -1.9081  -1.9044  -1.8684  -1.8612  -1.8521  -1.8508  -1.8399
    -1.8362  -1.8279  -1.8242  -1.8202  -1.8183  -1.8157  -1.8137  -1.7948
    -1.7899  -1.7815  -1.7795  -1.7782  -1.7747  -1.7746  -1.7722  -1.7700
    -1.7665  -1.7417  -1.7401  -1.7337  -1.7044  -1.6802  -1.6758  -1.6748
    -1.6725  -1.6691  -1.6678  -1.6650  -1.6650  -1.6633  -1.6572  -1.6515
    -1.6088  -1.6009  -1.5808  -1.4743  -1.4616  -1.4055  -1.4043  -1.4011
    -1.3987  -1.3941  -1.3882  -1.3509  -1.3455  -1.3414  -1.3157  -1.2720
    -1.2420  -1.2250  -1.2192  -1.2167  -1.1844  -1.1817  -1.1717  -1.1686
    -1.1619  -1.1496  -1.1451  -1.1246  -1.0351  -0.9757  -0.9698  -0.9688
    -0.9634  -0.9502  -0.9500  -0.9003  -0.8776  -0.8738  -0.8707  -0.8642
    -0.8441  -0.8395  -0.7837  -0.7675  -0.7665  -0.7618  -0.7564  -0.7559
    -0.7475  -0.7406  -0.5326  -0.4970  -0.4893  -0.4230  -0.3910  -0.3782
    -0.3257  -0.3102  -0.1499  -0.1248  -0.1180  -0.0967  -0.0682  -0.0619
     0.0039   0.0114   0.0447   0.0503   0.0544   0.0587   0.1125   0.1247
     0.1317   0.1375   0.1680   0.1755   0.1762   0.1969   0.2578   0.2700
     0.2790   0.2859   0.2871   0.2923   0.3732   0.3758   0.3827   0.3912
[...]
     0.5808   0.5918   0.6233   0.6330   0.6949   0.6972   0.7407   0.7473
     0.8102   0.8185   0.8233   0.8290   0.8322   0.8355   0.8392   0.8399
     0.8459   0.8462   0.8641   0.8827   0.8829   0.8872   0.8875   0.8894
     0.8940   0.8961   0.9019   0.9034   0.9177   0.9260   0.9620   0.9644
     0.9650   0.9692   0.9725   0.9738   0.9908   0.9911   1.0002   1.0010
     1.0035   1.0036   1.0249   1.0351   1.0389   1.0393   1.0587   1.0642
     1.0720   1.0728   1.0756   1.0779   1.0795   1.0819   1.0844   1.0849
     1.1145   1.1161   1.1779   1.1864   1.2064   1.2104   1.2137   1.2157
     1.2194   1.2197   1.2539   1.2595   1.2610   1.2693   1.2735   1.2736
     1.2744   1.2746   1.2828   1.2836   1.2885   1.2893   1.2894   1.2897
     1.2913   1.2986   1.3208   1.3258   1.3456   1.3462   1.3479   1.3507
     1.3652   1.3678   1.3706   1.3752   1.3775   1.3791   1.4547   1.4569
     1.4601   1.4662   1.4698   1.4707   1.5281   1.5316   1.6722   1.6826
     1.7648   1.8801   1.8843   1.8913   1.8941   1.8947   1.9100   1.9452
     1.9545   1.9573   1.9605   1.9695   1.9799   1.9834   1.9914   1.9961

     the Fermi energy is    -0.8741 ev

!    total energy              =  -21073.52181454 Ry
     estimated scf accuracy    <          6.2E-11 Ry
     smearing contrib. (-TS)   =       0.00174562 Ry
     internal energy E=F+TS    =  -21073.52356015 Ry

     The total energy is F=E-TS. E is the sum of the following terms:
     one-electron contribution = -737521.24611086 Ry
     hartree contribution      =  368722.20166578 Ry
     xc contribution           =   -2228.91958965 Ry
     ewald contribution        =  354829.24286236 Ry
     Dispersion Correction     =      -1.37595671 Ry
     one-center paw contrib.   =   -4873.42643108 Ry

     total magnetization       =   162.92 Bohr mag/cell
     absolute magnetization    =   169.55 Bohr mag/cell

     convergence has been achieved in  16 iterations

     negative rho (up, down):  1.148E-02 1.550E-02

     Forces acting on atoms (cartesian axes, Ry/au):

     atom    1 type  1   force =     0.00016336    0.00016586    0.00893748
     atom    2 type  1   force =     0.00003784   -0.00015401   -0.00794272
     atom    3 type  1   force =    -0.00007540   -0.00005270    0.00851537
     atom    4 type  1   force =    -0.00017238   -0.00022468   -0.00888859
     atom    5 type  1   force =     0.00000204    0.00000313   -0.00002866
     atom    6 type  1   force =     0.00002475    0.00001584   -0.00000321
     atom    7 type  1   force =     0.00001788   -0.00000877   -0.00002363
     atom    8 type  1   force =     0.00000942   -0.00000577    0.00000753
     atom    9 type  1   force =     0.00005745    0.00004433    0.00876949
     atom   10 type  1   force =    -0.00004570   -0.00005737    0.00875977
     atom   11 type  1   force =     0.00027486    0.00005512   -0.00923415
     atom   12 type  1   force =    -0.00000998    0.00009742   -0.00850981
     atom   13 type  1   force =     0.00000476    0.00000131   -0.00001956
     atom   14 type  1   force =    -0.00000312   -0.00000739   -0.00003165
     atom   15 type  1   force =    -0.00002225   -0.00000698    0.00001070
     atom   16 type  1   force =     0.00000616   -0.00000170    0.00002352
     atom   17 type  1   force =    -0.00005810   -0.00005851    0.00846595
     atom   18 type  1   force =    -0.00025020   -0.00006331   -0.00888210
     atom   19 type  1   force =     0.00001394    0.00018745    0.00859747
     atom   20 type  1   force =     0.00034183   -0.00056947   -0.00920141
     atom   21 type  1   force =     0.00000544    0.00001451   -0.00002861
     atom   22 type  1   force =     0.00000919   -0.00000225   -0.00000248
     atom   23 type  1   force =    -0.00000470   -0.00000182   -0.00004818
     atom   24 type  1   force =     0.00000135    0.00004305    0.00003895
     atom   25 type  1   force =     0.00013331    0.00010655    0.00847459
     atom   26 type  1   force =    -0.00024891    0.00011166    0.00898443
     atom   27 type  1   force =    -0.00021510   -0.00024193   -0.00865965
     atom   28 type  1   force =    -0.00008232   -0.00014608   -0.00877792
     atom   29 type  1   force =    -0.00000139    0.00001262   -0.00003971
     atom   30 type  1   force =    -0.00000152    0.00001940   -0.00003479
     atom   31 type  1   force =     0.00003820    0.00001298    0.00004052
     atom   32 type  1   force =     0.00004757    0.00004373   -0.00002020
     atom   33 type  1   force =    -0.00001555   -0.00037247    0.00902034
     atom   34 type  1   force =     0.00029520    0.00032015   -0.00907747
     atom   35 type  1   force =     0.00021761    0.00009813    0.00901046
     atom   36 type  1   force =    -0.00024141    0.00023213   -0.00791769
     atom   37 type  1   force =     0.00001002    0.00001165   -0.00003872
     atom   38 type  1   force =    -0.00003208   -0.00001387   -0.00000310
     atom   39 type  1   force =    -0.00000094   -0.00000360   -0.00003366
     atom   40 type  1   force =     0.00002614    0.00001421   -0.00003213
     atom   41 type  1   force =    -0.00000004    0.00000712    0.00789133
     atom   42 type  1   force =     0.00001930   -0.00027501    0.00905751
     atom   43 type  1   force =    -0.00018716   -0.00003308   -0.00869377
     atom   44 type  1   force =    -0.00022126   -0.00003606   -0.00877245
     atom   45 type  1   force =    -0.00000073    0.00000575   -0.00003817
     atom   46 type  1   force =     0.00002838   -0.00002347   -0.00003054
     atom   47 type  1   force =     0.00001531    0.00000530    0.00004043
     atom   48 type  1   force =     0.00005986    0.00002130   -0.00003135
     atom   49 type  1   force =     0.00018519   -0.00005788    0.00866859
     atom   50 type  1   force =    -0.00034678    0.00040309   -0.00919532
     atom   51 type  1   force =    -0.00034393    0.00010135    0.00897189
     atom   52 type  1   force =     0.00041150    0.00020346   -0.00907912
     atom   53 type  1   force =     0.00000319   -0.00000528   -0.00003687
     atom   54 type  1   force =     0.00003973   -0.00001134    0.00007897
     atom   55 type  1   force =     0.00001509    0.00000084   -0.00003162
     atom   56 type  1   force =    -0.00001383   -0.00003092    0.00002064
     atom   57 type  1   force =     0.00004153    0.00005995    0.00876904
     atom   58 type  1   force =    -0.00009979   -0.00008970    0.00873538
     atom   59 type  1   force =     0.00017135    0.00028932   -0.00923232
     atom   60 type  1   force =    -0.00000056   -0.00008536   -0.00909303
     atom   61 type  1   force =     0.00000737   -0.00000488   -0.00001967
     atom   62 type  1   force =     0.00000096    0.00000144   -0.00001858
     atom   63 type  1   force =    -0.00001662   -0.00002123    0.00000319
     atom   64 type  1   force =    -0.00003691   -0.00003193    0.00000569
     atom   65 type  2   force =     0.00001159   -0.00001133    0.00018160

     Total force =     0.000299     Total SCF correction =     0.000037
     SCF correction compared to forces is large: reduce conv_thr to get better values
     Energy error            =      1.3E-07
     Gradient error          =      1.8E-04

     bfgs converged in  12 scf cycles and  11 bfgs steps
     (criteria: energy <  7.3E-07 Ry, force <  3.9E-04 Ry/Bohr)

     End of BFGS Geometry Optimization

     Final energy   =  -21073.5218145368 Ry

     File ./Fe_H_paper_480c_ESM_p5.bfgs deleted, as requested
Begin final coordinates

ATOMIC_POSITIONS (angstrom)
Fe            1.6549129530        1.1702001330        0.0000000000    0   0   0
Fe            0.0000000000        0.0000000000        2.0269842320    0   0   0
Fe            4.9647388580        3.5106003990        0.0000000000    0   0   0
Fe            3.3098259060        2.3404002660        2.0269842320    0   0   0
Fe            1.6514371113        1.1685923382        4.0324170634
Fe            3.3047213553        9.3689576494        6.0212859747
Fe            4.9629882060        3.5094670789        4.0348708964
Fe            3.3007072600        2.3414819593        6.0138008505
Fe            2.4823638580        3.5106003990        0.0000000000    0   0   0
Fe            4.1372879530        1.1702001330        0.0000000000    0   0   0
Fe            0.8274509060        2.3404002660        2.0269842320    0   0   0
Fe            2.4823750000        0.0000000000        2.0269842320    0   0   0
Fe            2.4813586396        3.5111527186        4.0334508935
Fe            4.1352617361        1.1688856643        4.0332065837
Fe            0.8272158043        2.3427995978        6.0171665984
Fe            2.4775970859       -0.0026379750        6.0231540787
Fe            6.6196629530        1.1702001330        0.0000000000    0   0   0
Fe            4.9647500000        0.0000000000        2.0269842320    0   0   0
Fe            9.9294888580        3.5106003990        0.0000000000    0   0   0
Fe            8.2745759060        2.3404002660        2.0269842320    0   0   0
Fe            6.6180528337        1.1686871430        4.0348521369
Fe            4.9620671808       -0.0089748437        6.0139253701
Fe            9.9312243833        3.5122994627        4.0310782385
Fe            8.2754060432        2.3423012592        6.0215182453
Fe            7.4471138580        3.5106003990        0.0000000000    0   0   0
Fe            9.1020379530        1.1702001330        0.0000000000    0   0   0
Fe            5.7922009060        2.3404002660        2.0269842320    0   0   0
Fe            7.4471250000        0.0000000000        2.0269842320    0   0   0
Fe            7.4457002177        3.5091793997        4.0261511363
Fe            9.0979132012        1.1731345407        4.0381093191
Fe            5.7761303356        2.3287171744        6.0172150562
Fe           10.7601981317        9.3661322435        6.0193007778
Fe            3.3098147640        5.8510006640        0.0000000000    0   0   0
Fe            1.6549018110        4.6808005310        2.0269842320    0   0   0
Fe            6.6196406700        8.1914009300        0.0000000000    0   0   0
Fe            4.9647277170        7.0212007970        2.0269842320    0   0   0
Fe            3.3119149032        5.8522914412        4.0332856576
Fe           11.5831546132        4.6865397814        6.0170277966
Fe            6.6166285609        8.1891257590        4.0324293586
Fe            4.9692535733        7.0150656157        6.0213989767
Fe            4.1372656700        8.1914009300        0.0000000000    0   0   0
Fe            5.7921897640        5.8510006640        0.0000000000    0   0   0
Fe            2.4823527170        7.0212007970        2.0269842320    0   0   0
Fe            4.1372768110        4.6808005310        2.0269842320    0   0   0
Fe            4.1364729489        8.1913948667        4.0347009297
Fe            5.7934284853        5.8463908745        4.0382711034
Fe           12.4163871532        7.0250632606        6.0194800541
Fe            4.1430271273        4.6828836228        6.0190451577
Fe            8.2745647640        5.8510006640        0.0000000000    0   0   0
Fe            6.6196518110        4.6808005310        2.0269842320    0   0   0
Fe           11.5843906700        8.1914009300        0.0000000000    0   0   0
Fe            9.9294777170        7.0212007970        2.0269842320    0   0   0
Fe            8.2767945935        5.8518896876        4.0311099614
Fe            6.6221208020        4.6804011331        6.0210936235
Fe           11.5859617496        8.1933848896        4.0332362256
Fe            9.9340769905        7.0180409547        6.0169414881
Fe            9.1020156700        8.1914009300        0.0000000000    0   0   0
Fe           10.7569397640        5.8510006640        0.0000000000    0   0   0
Fe            7.4471027170        7.0212007970        2.0269842320    0   0   0
Fe            9.1020268110        4.6808005310        2.0269842320    0   0   0
Fe            9.1019797936        8.1903755700        4.0334642920
Fe           10.7582651388        5.8520209107        4.0340906264
Fe            7.4487643556        7.0201639104        6.0170500271
Fe            9.1067654699        4.6838372393        6.0127173947
H             7.8683031506        3.8083355421        6.9541544707
End final coordinates

     Writing output data file ./Fe_H_paper_480c_ESM_p5.save/

     General routines

     Parallel routines

   This run was terminated on:   3:49:38  17Jun2022

   JOB DONE.