     Program PWSCF v.6.4.1 starts on  3Jun2022 at 16:26: 5

     K-points division:     npool     =       8
     R & G space division:  proc/nbgrp/npool/nimage =      20
     Waiting for input...
     Reading input from standard input
Warning: card &CELL ignored
Warning: card / ignored

     Current dimensions of program PWSCF are:
     Max number of different atomic species (ntypx) = 10
     Max number of k-points (npk) =  40000
     Max angular momentum in pseudopotentials (lmaxx) =  3

     Atomic positions and unit cell read from directory:
     ./Fe_H_paper_480c.save/

     IMPORTANT: XC functional enforced from input :
     Exchange-correlation      = PBE ( 1  4  3  4 0 0)
     Any further DFT definition will be discarded
     Please, verify this is what you really want

               file Fe.pbe-spn-kjpaw_psl.0.2.1.UPF: wavefunction(s)  3D renormalized

     Parameters for Dispersion (Grimme-D2) Correction:
       atom      VdW radius       C_6

        Fe         2.952        374.666
        H          1.892          4.857

     bravais-lattice index     =            0
     lattice parameter (alat)  =      18.7640  a.u.
     unit-cell volume          =   16360.3163 (a.u.)^3
     number of atoms/cell      =           65
     number of atomic types    =            2
     number of electrons       =      1025.00
     number of Kohn-Sham states=          616
     kinetic-energy cutoff     =      60.0000  Ry
     charge density cutoff     =     480.0000  Ry
     convergence threshold     =      1.0E-08
     mixing beta               =       0.2000
     number of iterations used =           10  local-TF  mixing
     Exchange-correlation      = PBE ( 1  4  3  4 0 0)
     nstep                     =           50

     celldm(1)=  18.764036  celldm(2)=   0.000000  celldm(3)=   0.000000
     celldm(4)=   0.000000  celldm(5)=   0.000000  celldm(6)=   0.000000

     crystal axes: (cart. coord. in units of alat)
               a(1) = (   1.000000   0.000000   0.000000 )
               a(2) = (   0.333330   0.942807   0.000000 )
               a(3) = (   0.000000   0.000000   2.626577 )

     reciprocal axes: (cart. coord. in units 2 pi/alat)
               b(1) = (  1.000000 -0.353551  0.000000 )
               b(2) = (  0.000000  1.060663  0.000000 )
               b(3) = (  0.000000  0.000000  0.380724 )

     PseudoPot. # 1 for Fe read from file:
     ../../SSSP/Fe.pbe-spn-kjpaw_psl.0.2.1.UPF
     MD5 check sum: e86618425769142926afa95317d90200
     Pseudo is Projector augmented-wave + core cor, Zval = 16.0
     Generated using "atomic" code by A. Dal Corso v.5.0.99 svn rev. 10869
     Shape of augmentation charge: PSQ
     Using radial grid of 1191 points,  6 beta functions with:
                l(1) =   0
                l(2) =   0
                l(3) =   1
                l(4) =   1
                l(5) =   2
                l(6) =   2
     Q(r) pseudized with 0 coefficients

     PseudoPot. # 2 for H  read from file:
     ../../SSSP/H.pbe-rrkjus_psl.1.0.0.UPF
     MD5 check sum: f52b6d4d1c606e5624b1dc7b2218f220
     Pseudo is Ultrasoft, Zval =  1.0
     Generated using "atomic" code by A. Dal Corso v.5.1
     Using radial grid of  929 points,  2 beta functions with:
                l(1) =   0
                l(2) =   0
     Q(r) pseudized with 0 coefficients

     atomic species   valence    mass     pseudopotential
        Fe            16.00    55.84500     Fe( 1.00)
        H              1.00     1.00800     H ( 1.00)

     Starting magnetic structure
     atomic species   magnetization
        Fe           0.100
        H            0.100

     No symmetry found

   Cartesian axes

     site n.     atom                  positions (alat units)
         1           Fe  tau(   1) = (   0.1666663   0.1178509   0.0000000  )
         2           Fe  tau(   2) = (   0.0000000   0.0000000   0.2041376  )
         3           Fe  tau(   3) = (   0.4999989   0.3535526   0.0000000  )
         4           Fe  tau(   4) = (   0.3333326   0.2357017   0.2041376  )
         5           Fe  tau(   5) = (   0.1658204   0.1170253   0.4057049  )
         6           Fe  tau(   6) = (   0.3324311   0.9422817   0.6054703  )
         7           Fe  tau(   7) = (   0.4991949   0.3528471   0.4060511  )
         8           Fe  tau(   8) = (   0.3315069   0.2351257   0.6044901  )
         9           Fe  tau(   9) = (   0.2499989   0.3535526   0.0000000  )
        10           Fe  tau(  10) = (   0.4166663   0.1178509   0.0000000  )
        11           Fe  tau(  11) = (   0.0833326   0.2357017   0.2041376  )
        12           Fe  tau(  12) = (   0.2500000   0.0000000   0.2041376  )
        13           Fe  tau(  13) = (   0.2492793   0.3529933   0.4056815  )
        14           Fe  tau(  14) = (   0.4159650   0.1170241   0.4058032  )
        15           Fe  tau(  15) = (   0.0823297   0.2346671   0.6051220  )
        16           Fe  tau(  16) = (   0.2491314  -0.0010924   0.6057404  )
        17           Fe  tau(  17) = (   0.6666663   0.1178509   0.0000000  )
        18           Fe  tau(  18) = (   0.5000000   0.0000000   0.2041376  )
        19           Fe  tau(  19) = (   0.9999989   0.3535526   0.0000000  )
        20           Fe  tau(  20) = (   0.8333326   0.2357017   0.2041376  )
        21           Fe  tau(  21) = (   0.6660049   0.1168074   0.4060022  )
        22           Fe  tau(  22) = (   0.4992777  -0.0023649   0.6045342  )
        23           Fe  tau(  23) = (   0.9995215   0.3529088   0.4056249  )
        24           Fe  tau(  24) = (   0.8323547   0.2348314   0.6055419  )
        25           Fe  tau(  25) = (   0.7499989   0.3535526   0.0000000  )
        26           Fe  tau(  26) = (   0.9166663   0.1178509   0.0000000  )
        27           Fe  tau(  27) = (   0.5833326   0.2357017   0.2041376  )
        28           Fe  tau(  28) = (   0.7500000   0.0000000   0.2041376  )
        29           Fe  tau(  29) = (   0.7492071   0.3526183   0.4049274  )
        30           Fe  tau(  30) = (   0.9157784   0.1172963   0.4063870  )
        31           Fe  tau(  31) = (   0.5807775   0.2332012   0.6049402  )
        32           Fe  tau(  32) = (   1.0833227   0.9417683   0.6050674  )
        33           Fe  tau(  33) = (   0.3333315   0.5892543   0.0000000  )
        34           Fe  tau(  34) = (   0.1666652   0.4714034   0.2041376  )
        35           Fe  tau(  35) = (   0.6666640   0.8249560   0.0000000  )
        36           Fe  tau(  36) = (   0.4999978   0.7071052   0.2041376  )
        37           Fe  tau(  37) = (   0.3329336   0.5887609   0.4057052  )
        38           Fe  tau(  38) = (   1.1654840   0.4707357   0.6048370  )
        39           Fe  tau(  39) = (   0.6658986   0.8239904   0.4057790  )
        40           Fe  tau(  40) = (   0.4996105   0.7058341   0.6055422  )
        41           Fe  tau(  41) = (   0.4166640   0.8249560   0.0000000  )
        42           Fe  tau(  42) = (   0.5833315   0.5892543   0.0000000  )
        43           Fe  tau(  43) = (   0.2499978   0.7071052   0.2041376  )
        44           Fe  tau(  44) = (   0.4166652   0.4714034   0.2041376  )
        45           Fe  tau(  45) = (   0.4161278   0.8242953   0.4059745  )
        46           Fe  tau(  46) = (   0.5828596   0.5881674   0.4065408  )
        47           Fe  tau(  47) = (   1.2494842   0.7063170   0.6052170  )
        48           Fe  tau(  48) = (   0.4163929   0.4710391   0.6051521  )
        49           Fe  tau(  49) = (   0.8333315   0.5892543   0.0000000  )
        50           Fe  tau(  50) = (   0.6666652   0.4714034   0.2041376  )
        51           Fe  tau(  51) = (   1.1666640   0.8249560   0.0000000  )
        52           Fe  tau(  52) = (   0.9999978   0.7071052   0.2041376  )
        53           Fe  tau(  53) = (   0.8328499   0.5885583   0.4057161  )
        54           Fe  tau(  54) = (   0.6663180   0.4697300   0.6057647  )
        55           Fe  tau(  55) = (   1.1663201   0.8243223   0.4056401  )
        56           Fe  tau(  56) = (   0.9993732   0.7053540   0.6049239  )
        57           Fe  tau(  57) = (   0.9166640   0.8249560   0.0000000  )
        58           Fe  tau(  58) = (   1.0833315   0.5892543   0.0000000  )
        59           Fe  tau(  59) = (   0.7499978   0.7071052   0.2041376  )
        60           Fe  tau(  60) = (   0.9166652   0.4714034   0.2041376  )
        61           Fe  tau(  61) = (   0.9161489   0.8239705   0.4057154  )
        62           Fe  tau(  62) = (   1.0827615   0.5885621   0.4058206  )
        63           Fe  tau(  63) = (   0.7490832   0.7056470   0.6053428  )
        64           Fe  tau(  64) = (   0.9160038   0.4701995   0.6047126  )
        65           H   tau(  65) = (   0.7914842   0.3816294   0.6996934  )

     number of k points=    10  Methfessel-Paxton smearing, width (Ry)=  0.0100
                       cart. coord. in units 2pi/alat
        k(    1) = (   0.0000000   0.0000000   0.0000000), wk =   0.0625000
        k(    2) = (   0.0000000   0.2651656   0.0000000), wk =   0.1250000
        k(    3) = (   0.0000000  -0.5303313   0.0000000), wk =   0.0625000
        k(    4) = (   0.2500000  -0.0883878   0.0000000), wk =   0.1250000
        k(    5) = (   0.2500000   0.1767779   0.0000000), wk =   0.1250000
        k(    6) = (   0.2500000  -0.6187190   0.0000000), wk =   0.1250000
        k(    7) = (   0.2500000  -0.3535534   0.0000000), wk =   0.1250000
        k(    8) = (  -0.5000000   0.1767755   0.0000000), wk =   0.0625000
        k(    9) = (  -0.5000000   0.4419412   0.0000000), wk =   0.1250000
        k(   10) = (  -0.5000000  -0.3535558   0.0000000), wk =   0.0625000

     Check: negative core charge=   -0.000039

     The initial density is read from file :
     ./Fe_H_paper_480c.save/charge-density

     negative rho (up, down):  2.540E-02 4.655E-02
     Starting wfcs from file
     Checking if some PAW data can be deallocated...

     Self-consistent Calculation

     iteration #  1     ecut=    60.00 Ry     beta= 0.20
     Davidson diagonalization with overlap
     ethr =  1.00E-04,  avg # of iterations =  2.0

     Threshold (ethr) on eigenvalues was too large:
     Diagonalizing with lowered threshold

     Davidson diagonalization with overlap
     ethr =  1.12E-08,  avg # of iterations =  4.0

     negative rho (up, down):  2.540E-02 3.940E-02

     total energy              =  -21073.44625640 Ry
     Harris-Foulkes estimate   =  -21073.44616786 Ry
     estimated scf accuracy    <       0.00009836 Ry

     total magnetization       =   162.61 Bohr mag/cell
     absolute magnetization    =   169.07 Bohr mag/cell

[...]

     Magnetic moment per site:
     atom:    1    charge:   12.6033    magn:    2.3593    constr:    0.0000
     atom:    2    charge:   12.5918    magn:    2.2112    constr:    0.0000
     atom:    3    charge:   12.6033    magn:    2.3623    constr:    0.0000
     atom:    4    charge:   12.5920    magn:    2.1902    constr:    0.0000
     atom:    5    charge:   12.5937    magn:    2.1788    constr:    0.0000
     atom:    6    charge:   12.6049    magn:    2.3454    constr:    0.0000
[...]
     atom:   54    charge:   12.6023    magn:    2.2146    constr:    0.0000
     atom:   55    charge:   12.5939    magn:    2.1735    constr:    0.0000
     atom:   56    charge:   12.6023    magn:    2.3512    constr:    0.0000
     atom:   57    charge:   12.6032    magn:    2.3568    constr:    0.0000
     atom:   58    charge:   12.6032    magn:    2.3593    constr:    0.0000
     atom:   59    charge:   12.5925    magn:    2.2007    constr:    0.0000
     atom:   60    charge:   12.5925    magn:    2.1978    constr:    0.0000
     atom:   61    charge:   12.5936    magn:    2.1730    constr:    0.0000
     atom:   62    charge:   12.5930    magn:    2.1599    constr:    0.0000
     atom:   63    charge:   12.6029    magn:    2.3503    constr:    0.0000
     atom:   64    charge:   12.6006    magn:    2.2503    constr:    0.0000
     atom:   65    charge:    0.9728    magn:   -0.0226    constr:    0.0000

     End of self-consistent calculation

 ------ SPIN UP ------------

[...]

 ------ SPIN DOWN ----------

[...]

          k = 0.2500-0.3536 0.0000 (128397 PWs)   bands (ev):

[...]

          k =-0.5000-0.3536 0.0000 (128560 PWs)   bands (ev):

   -82.9733 -82.9644 -82.9383 -82.9340 -82.9285 -82.9272 -82.9125 -82.9074
   -82.9019 -82.9003 -82.8995 -82.8983 -82.8969 -82.8950 -82.8931 -82.8928
   -82.8897 -82.8883 -82.8861 -82.8838 -82.8812 -82.8789 -82.8772 -82.8756
   -82.8739 -82.8726 -82.8725 -82.8699 -82.8687 -82.8686 -82.8675 -82.8514
   -82.8495 -82.8483 -82.8470 -82.8387 -82.8372 -82.8367 -82.8355 -82.8348
   -82.8342 -82.8338 -82.8244 -82.8172 -82.8164 -82.8158 -82.8156 -82.8155
   -82.8153 -82.8149 -82.8142 -82.8136 -82.8133 -82.8129 -82.8127 -82.8089
   -82.8069 -82.7963 -82.7953 -82.7933 -82.7928 -82.7922 -82.7911 -82.7883
   -49.2508 -49.2215 -49.1956 -49.1894 -49.1890 -49.1855 -49.1833 -49.1816
   -49.1788 -49.1762 -49.1760 -49.1758 -49.1732 -49.1716 -49.1704 -49.1652
   -49.1633 -49.1632 -49.1628 -49.1616 -49.1572 -49.1557 -49.1520 -49.1497
   -49.1488 -49.1446 -49.1396 -49.1379 -49.1351 -49.1326 -49.1290 -49.1289
   -49.1191 -49.1168 -49.1149 -49.1095 -49.1064 -49.1032 -49.1006 -49.0987
   -49.0974 -49.0955 -49.0937 -49.0907 -49.0901 -49.0889 -49.0884 -49.0879
   -49.0877 -49.0873 -49.0864 -49.0851 -49.0835 -49.0818 -49.0785 -49.0780
   -49.0759 -49.0754 -49.0748 -49.0738 -49.0736 -49.0717 -49.0533 -49.0494
   -49.0394 -49.0370 -49.0344 -49.0296 -49.0280 -49.0273 -49.0222 -49.0180
   -49.0147 -49.0122 -49.0084 -49.0027 -48.9975 -48.9954 -48.9857 -48.9849
   -48.9806 -48.9797 -48.9789 -48.9779 -48.9750 -48.9730 -48.9720 -48.9717
   -48.9697 -48.9678 -48.9656 -48.9655 -48.9649 -48.9635 -48.9573 -48.9530
   -48.9507 -48.9482 -48.9436 -48.9433 -48.9421 -48.9398 -48.9365 -48.9354
   -48.9353 -48.9337 -48.9331 -48.9271 -48.9262 -48.9247 -48.9237 -48.9215
   -48.9215 -48.9174 -48.9122 -48.9106 -48.9084 -48.9055 -48.9050 -48.9007
   -48.8994 -48.8983 -48.8968 -48.8965 -48.8925 -48.8907 -48.8894 -48.8890
   -48.8870 -48.8848 -48.8806 -48.8795 -48.8765 -48.8748 -48.8737 -48.8733
   -48.8729 -48.8721 -48.8707 -48.8692 -48.8667 -48.8667 -48.8657 -48.8651
   -48.8642 -48.8629 -48.8625 -48.8622 -48.8596 -48.8549 -48.8540 -48.8526
   -48.8520 -48.8498 -48.8485 -48.8483 -48.8472 -48.8457 -48.8453 -48.8448
   -48.8446 -48.8438 -48.8433 -48.8433 -48.8424 -48.8421 -48.8419 -48.8408
   -48.8400 -48.8360 -48.8340 -48.8332 -48.8323 -48.8316 -48.8307 -48.8302
   -48.8298 -48.8292 -48.8289 -48.8286 -48.8206 -48.8204 -48.8187 -48.8163
   -48.8163 -48.8151 -48.8150 -48.8140 -48.8124 -48.8107 -48.8102 -48.8096
    -4.9716  -4.8909  -4.4082  -4.3058  -3.9792  -3.5978  -3.3047  -3.0548
    -2.7299  -2.3042  -2.3041  -2.3021  -2.2729  -1.8931  -1.7306  -1.4583
    -1.4568  -1.4539  -1.4525  -1.4515  -1.4262  -1.3588  -1.3240  -1.3210
    -1.3209  -1.3195  -1.1350  -0.8948  -0.8945  -0.8938  -0.8928  -0.8916
    -0.7837  -0.6817  -0.6564  -0.4249  -0.4108  -0.3938  -0.3925  -0.3893
    -0.3390  -0.3315  -0.3212  -0.2952  -0.2912  -0.2874  -0.2055  -0.1307
    -0.1287  -0.1197  -0.1126  -0.1003  -0.0418   0.1428   0.1443   0.1570
     0.1573   0.1628   0.1956   0.3794   0.4086   0.4297   0.4421   0.4814
     0.4825   0.5869   0.5971   0.6655   0.6662   0.6698   0.6700   0.6782
     0.6927   0.6953   0.7033   0.7040   0.7163   0.7954   0.8000   0.8019
     0.8038   0.8053   0.8067   0.8097   0.8105   0.8144   0.8145   0.8169
     0.9183   1.0193   1.0276   1.0365   1.0373   1.1655   1.1665   1.1684
     1.1773   1.1790   1.1810   1.2139   1.2220   1.2314   1.2333   1.2406
     1.2415   1.2442   1.2449   1.2605   1.2642   1.2690   1.2715   1.2892
     1.2955   1.2999   1.3005   1.3041   1.3074   1.3078   1.3099   1.3131
     1.3143   1.3490   1.3503   1.3562   1.3844   1.4065   1.4092   1.4113
     1.4137   1.4148   1.4148   1.4175   1.4179   1.4201   1.4260   1.4314
     1.4800   1.4862   1.5072   1.6124   1.6261   1.6826   1.6835   1.6875
     1.6890   1.7019   1.7098   1.7389   1.7431   1.7468   1.7750   1.8481
     1.8577   1.8603   1.8667   1.8705   1.8741   1.8748   1.9183   1.9240
     1.9321   1.9358   1.9565   1.9851   2.0507   2.1125   2.1126   2.1191
     2.1296   2.1863   2.1884   2.2028   2.2111   2.2140   2.2197   2.2245
     2.2320   2.2382   2.2402   2.2434   2.2997   2.3171   2.3174   2.3230
     2.3430   2.3513   2.5633   2.5960   2.6034   2.6663   2.6976   2.7107
     2.7660   2.7796   2.9298   2.9598   2.9654   2.9844   3.0201   3.0274
     3.0875   3.0980   3.1301   3.1348   3.1393   3.1433   3.1996   3.2132
     3.2220   3.2223   3.2595   3.2602   3.2655   3.2800   3.3520   3.3620
     3.3685   3.3770   3.3772   3.3829   3.4590   3.4631   3.4728   3.4795
[...]
     3.6772   3.6882   3.7226   3.7324   3.7839   3.7862   3.8304   3.8364
     3.8996   3.9079   3.9116   3.9187   3.9208   3.9251   3.9284   3.9287
     3.9347   3.9359   3.9532   3.9729   3.9738   3.9754   3.9787   3.9802
     3.9831   3.9840   3.9891   3.9902   4.0037   4.0101   4.0531   4.0560
     4.0566   4.0592   4.0639   4.0650   4.0849   4.0856   4.0877   4.0885
     4.0896   4.0910   4.1144   4.1236   4.1288   4.1291   4.1468   4.1522
     4.1602   4.1605   4.1651   4.1681   4.1696   4.1724   4.1742   4.1746
     4.2107   4.2129   4.2677   4.2761   4.2931   4.2968   4.3097   4.3098
     4.3143   4.3156   4.3452   4.3498   4.3509   4.3579   4.3610   4.3620
     4.3625   4.3630   4.3729   4.3730   4.3757   4.3773   4.3791   4.3796
     4.3809   4.3873   4.4276   4.4301   4.4363   4.4368   4.4379   4.4406
     4.4534   4.4567   4.4589   4.4636   4.4657   4.4671   4.5462   4.5479
     4.5489   4.5555   4.5585   4.5589   4.7177   4.7471   4.7635   4.7725
     4.9045   4.9737   4.9824   4.9834   4.9931   5.0404   5.0485   5.0510
     5.0558   5.0629   5.0710   5.0738   5.0883   5.0930   5.3246   5.3571

     the Fermi energy is     2.2175 ev

!    total energy              =  -21073.44660614 Ry
     Harris-Foulkes estimate   =  -21073.44660587 Ry
     estimated scf accuracy    <          4.5E-11 Ry

     The total energy is the sum of the following terms:

     one-electron contribution = -167132.10818466 Ry
     hartree contribution      =   83644.03818093 Ry
     xc contribution           =   -2228.95138256 Ry
     ewald contribution        =   69518.38135347 Ry
     Dispersion Correction     =      -1.37726487 Ry
     one-center paw contrib.   =   -4873.43015797 Ry
     smearing contrib. (-TS)   =       0.00084952 Ry

     total magnetization       =   162.51 Bohr mag/cell
     absolute magnetization    =   168.97 Bohr mag/cell

     convergence has been achieved in  10 iterations

     negative rho (up, down):  2.541E-02 1.745E-02

     Forces acting on atoms (cartesian axes, Ry/au):

     atom    1 type  1   force =     0.00016933    0.00015261    0.00961803
     atom    2 type  1   force =    -0.00003961   -0.00016850   -0.00859934
     atom    3 type  1   force =    -0.00010197   -0.00003546    0.00916490
     atom    4 type  1   force =    -0.00020157   -0.00018222   -0.00950544
     atom    5 type  1   force =     0.00001815    0.00004967    0.00010118
     atom    6 type  1   force =     0.00000460    0.00000850    0.00001966
     atom    7 type  1   force =    -0.00004441    0.00000529    0.00002589
     atom    8 type  1   force =     0.00004662    0.00001048   -0.00001086
     atom    9 type  1   force =     0.00007112    0.00006893    0.00956171
     atom   10 type  1   force =    -0.00004146   -0.00005790    0.00946861
     atom   11 type  1   force =     0.00026047    0.00010202   -0.00986750
     atom   12 type  1   force =     0.00002647    0.00011785   -0.00908829
     atom   13 type  1   force =     0.00004530   -0.00000345    0.00003961
     atom   14 type  1   force =    -0.00007814   -0.00007177   -0.00005412
     atom   15 type  1   force =    -0.00004079    0.00003237    0.00002376
     atom   16 type  1   force =     0.00011614    0.00008160    0.00006439
     atom   17 type  1   force =    -0.00004305   -0.00010771    0.00911802
     atom   18 type  1   force =    -0.00024394   -0.00007224   -0.00950252
     atom   19 type  1   force =     0.00002090    0.00014360    0.00924592
     atom   20 type  1   force =     0.00029056   -0.00053792   -0.00995071
     atom   21 type  1   force =     0.00001503   -0.00008681    0.00004925
     atom   22 type  1   force =     0.00004911   -0.00000900    0.00001833
     atom   23 type  1   force =     0.00000638   -0.00003333   -0.00001780
     atom   24 type  1   force =     0.00004287    0.00001981    0.00015833
     atom   25 type  1   force =     0.00012943    0.00006535    0.00916034
     atom   26 type  1   force =    -0.00021780    0.00012856    0.00960420
     atom   27 type  1   force =    -0.00024147   -0.00022052   -0.00924869
     atom   28 type  1   force =    -0.00020559   -0.00008981   -0.00937951
     atom   29 type  1   force =     0.00003598    0.00003700   -0.00004100
     atom   30 type  1   force =     0.00005381   -0.00009407   -0.00003299
     atom   31 type  1   force =     0.00004605   -0.00001253    0.00014667
     atom   32 type  1   force =     0.00008538    0.00006966   -0.00003580
     atom   33 type  1   force =    -0.00005289   -0.00032427    0.00970104
     atom   34 type  1   force =     0.00028635    0.00027697   -0.00971976
     atom   35 type  1   force =     0.00016347    0.00013191    0.00967746
     atom   36 type  1   force =    -0.00029696    0.00018375   -0.00858513
     atom   37 type  1   force =    -0.00000188    0.00002941    0.00000910
     atom   38 type  1   force =    -0.00001247    0.00006118    0.00006870
     atom   39 type  1   force =     0.00003266    0.00001734    0.00007892
     atom   40 type  1   force =     0.00004137   -0.00000937   -0.00003009
     atom   41 type  1   force =    -0.00002838    0.00000647    0.00846098
     atom   42 type  1   force =     0.00003176   -0.00022474    0.00968595
     atom   43 type  1   force =    -0.00021538   -0.00002785   -0.00930622
     atom   44 type  1   force =    -0.00024533   -0.00012872   -0.00936410
     atom   45 type  1   force =     0.00000014    0.00002540    0.00002323
     atom   46 type  1   force =    -0.00004925    0.00004829   -0.00000576
     atom   47 type  1   force =    -0.00001255   -0.00004656    0.00010279
     atom   48 type  1   force =     0.00014384    0.00003080   -0.00009725
     atom   49 type  1   force =     0.00016736   -0.00004620    0.00929900
     atom   50 type  1   force =    -0.00037719    0.00039313   -0.00991676
     atom   51 type  1   force =    -0.00035175    0.00006905    0.00965251
     atom   52 type  1   force =     0.00036302    0.00025125   -0.00972753
     atom   53 type  1   force =    -0.00000079   -0.00002762   -0.00003771
     atom   54 type  1   force =     0.00004883    0.00000914    0.00019102
     atom   55 type  1   force =     0.00000962   -0.00003639    0.00004448
     atom   56 type  1   force =     0.00006821   -0.00009618    0.00005522
     atom   57 type  1   force =     0.00002849    0.00007748    0.00956659
     atom   58 type  1   force =    -0.00012307   -0.00010868    0.00940907
     atom   59 type  1   force =     0.00019659    0.00028839   -0.00984788
     atom   60 type  1   force =    -0.00000409   -0.00003650   -0.00963998
     atom   61 type  1   force =     0.00004331    0.00002964    0.00003908
     atom   62 type  1   force =     0.00010950    0.00007829    0.00008205
     atom   63 type  1   force =     0.00000252   -0.00009182   -0.00010245
     atom   64 type  1   force =    -0.00003979   -0.00005899    0.00000473
     atom   65 type  2   force =     0.00004086   -0.00005406   -0.00002556

     Total force =     0.000591     Total SCF correction =     0.000019

     bfgs converged in  67 scf cycles and  66 bfgs steps
     (criteria: energy <  7.3E-07 Ry, force <  3.9E-04 Ry/Bohr)

     End of BFGS Geometry Optimization

     Final energy   =  -21073.4466061383 Ry
Begin final coordinates

ATOMIC_POSITIONS (angstrom)
Fe       1.654912953   1.170200133   0.000000000    0   0   0
Fe       0.000000000   0.000000000   2.026984232    0   0   0
Fe       4.964738858   3.510600399   0.000000000    0   0   0
Fe       3.309825906   2.340400266   2.026984232    0   0   0
Fe       1.650445154   1.168492614   4.026683079
Fe       3.304201718   9.369005408   6.007562406
Fe       4.962664720   3.509330591   4.029193226
Fe       3.299603850   2.340219757   6.001367506
Fe       2.482363858   3.510600399   0.000000000    0   0   0
Fe       4.137287953   1.170200133   0.000000000    0   0   0
Fe       0.827450906   2.340400266   2.026984232    0   0   0
Fe       2.482375000   0.000000000   2.026984232    0   0   0
Fe       2.480786837   3.510787823   4.027610032
Fe       4.134586534   1.168811350   4.027376428
Fe       0.825303932   2.342227202   6.005969527
Fe       2.475908492  -0.003691555   6.010395422
Fe       6.619662953   1.170200133   0.000000000    0   0   0
Fe       4.964750000   0.000000000   2.026984232    0   0   0
Fe       9.929488858   3.510600399   0.000000000    0   0   0
Fe       8.274575906   2.340400266   2.026984232    0   0   0
Fe       6.617424349   1.169245869   4.029174060
Fe       4.960335333  -0.008553365   6.001093745
Fe       9.930598003   3.512338332   4.025574211
Fe       8.274265421   2.343850554   6.010817821
Fe       7.447113858   3.510600399   0.000000000    0   0   0
Fe       9.102037953   1.170200133   0.000000000    0   0   0
Fe       5.792200906   2.340400266   2.026984232    0   0   0
Fe       7.447125000   0.000000000   2.026984232    0   0   0
Fe       7.445262405   3.509363629   4.020313366
Fe       9.096855440   1.174228818   4.032846641
Fe       5.775513752   2.329494669   6.005030377
Fe      10.759515796   9.366855804   6.006034148
Fe       3.309814764   5.851000664   0.000000000    0   0   0
Fe       1.654901811   4.680800531   2.026984232    0   0   0
Fe       6.619640670   8.191400930   0.000000000    0   0   0
Fe       4.964727717   7.021200797   2.026984232    0   0   0
Fe       3.311523158   5.851937217   4.027507556
Fe      11.581338810   4.686102916   6.003212986
Fe       6.616241329   8.188501679   4.026849997
Fe       4.968638124   7.014903936   6.008361664
Fe       4.137265670   8.191400930   0.000000000    0   0   0
Fe       5.792189764   5.851000664   0.000000000    0   0   0
Fe       2.482352717   7.021200797   2.026984232    0   0   0
Fe       4.137276811   4.680800531   2.026984232    0   0   0
Fe       4.136018996   8.191092750   4.028820905
Fe       5.793557867   5.845681319   4.032866108
Fe      12.415837710   7.025244173   6.006294327
Fe       4.142225602   4.682714013   6.006135275
Fe       8.274564764   5.851000664   0.000000000    0   0   0
Fe       6.619651811   4.680800531   2.026984232    0   0   0
Fe      11.584390670   8.191400930   0.000000000    0   0   0
Fe       9.929477717   7.021200797   2.026984232    0   0   0
Fe       8.276149697   5.852054699   4.025726474
Fe       6.621971879   4.680376467   6.009961993
Fe      11.585420155   8.193744931   4.027373356
Fe       9.932520005   7.017764446   6.003452120
Fe       9.102015670   8.191400930   0.000000000    0   0   0
Fe      10.756939764   5.851000664   0.000000000    0   0   0
Fe       7.447102717   7.021200797   2.026984232    0   0   0
Fe       9.102026811   4.680800531   2.026984232    0   0   0
Fe       9.101405710   8.190555026   4.027602003
Fe      10.757609444   5.852034508   4.027700685
Fe       7.447100540   7.019657311   6.006696780
Fe       9.104692097   4.683444741   6.000584010
H        7.867469615   3.809713726   6.941998234
End final coordinates

     Writing output data file Fe_H_paper_480c.save/

     General routines

     Parallel routines

   This run was terminated on:   3:26:20   4Jun2022

   JOB DONE.