     Program PWSCF v.6.4.1 starts on 15Jun2022 at 15: 7:33

     K-points division:     npool     =       8
     R & G space division:  proc/nbgrp/npool/nimage =      20
     Waiting for input...
     Reading input from standard input
Warning: card &CELL ignored
Warning: card / ignored

     Current dimensions of program PWSCF are:
     Max number of different atomic species (ntypx) = 10
     Max number of k-points (npk) =  40000
     Max angular momentum in pseudopotentials (lmaxx) =  3

     IMPORTANT: XC functional enforced from input :
     Exchange-correlation      = PBE ( 1  4  3  4 0 0)
     Any further DFT definition will be discarded
     Please, verify this is what you really want

               file Fe.pbe-spn-kjpaw_psl.0.2.1.UPF: wavefunction(s)  3D renormalized

     Parameters for Dispersion (Grimme-D2) Correction:
       atom      VdW radius       C_6

        Fe         2.952        374.666

     bravais-lattice index     =            0
     lattice parameter (alat)  =      18.7640  a.u.
     unit-cell volume          =   16360.3163 (a.u.)^3
     number of atoms/cell      =           64
     number of atomic types    =            1
     number of electrons       =      1024.00
     number of Kohn-Sham states=          614
     kinetic-energy cutoff     =      60.0000  Ry
     charge density cutoff     =     480.0000  Ry
     convergence threshold     =      1.0E-08
     mixing beta               =       0.2000
     number of iterations used =           10  local-TF  mixing
     Exchange-correlation      = PBE ( 1  4  3  4 0 0)
     nstep                     =           50

     Effective Screening Medium Method
     Boundary Conditions: Metal-Slab-Metal
     field strength                   =    -0.02 Ry/a.u.
     grid points for fit at edges     =        4

     celldm(1)=  18.764036  celldm(2)=   0.000000  celldm(3)=   0.000000
     celldm(4)=   0.000000  celldm(5)=   0.000000  celldm(6)=   0.000000

     crystal axes: (cart. coord. in units of alat)
               a(1) = (   1.000000   0.000000   0.000000 )
               a(2) = (   0.333330   0.942807   0.000000 )
               a(3) = (   0.000000   0.000000   2.626577 )

     reciprocal axes: (cart. coord. in units 2 pi/alat)
               b(1) = (  1.000000 -0.353551  0.000000 )
               b(2) = (  0.000000  1.060663  0.000000 )
               b(3) = (  0.000000  0.000000  0.380724 )

     PseudoPot. # 1 for Fe read from file:
     ../SSSP/Fe.pbe-spn-kjpaw_psl.0.2.1.UPF
     MD5 check sum: e86618425769142926afa95317d90200
     Pseudo is Projector augmented-wave + core cor, Zval = 16.0
     Generated using "atomic" code by A. Dal Corso v.5.0.99 svn rev. 10869
     Shape of augmentation charge: PSQ
     Using radial grid of 1191 points,  6 beta functions with:
                l(1) =   0
                l(2) =   0
                l(3) =   1
                l(4) =   1
                l(5) =   2
                l(6) =   2
     Q(r) pseudized with 0 coefficients

     atomic species   valence    mass     pseudopotential
        Fe            16.00    55.84500     Fe( 1.00)

     Starting magnetic structure
     atomic species   magnetization
        Fe           0.100

     No symmetry found

   Cartesian axes

     site n.     atom                  positions (alat units)
         1           Fe  tau(   1) = (   0.1666663   0.1178509   0.0000000  )
         2           Fe  tau(   2) = (   0.0000000   0.0000000   0.2041376  )
         3           Fe  tau(   3) = (   0.4999989   0.3535526   0.0000000  )
         4           Fe  tau(   4) = (   0.3333326   0.2357017   0.2041376  )
         5           Fe  tau(   5) = (   0.1666883   0.1178565   0.4055485  )
         6           Fe  tau(   6) = (   0.3333688   0.9428184   0.6047447  )
         7           Fe  tau(   7) = (   0.5000206   0.3535572   0.4055456  )
         8           Fe  tau(   8) = (   0.3333470   0.2357998   0.6047191  )
         9           Fe  tau(   9) = (   0.2499989   0.3535526   0.0000000  )
        10           Fe  tau(  10) = (   0.4166663   0.1178509   0.0000000  )
        11           Fe  tau(  11) = (   0.0833326   0.2357017   0.2041376  )
        12           Fe  tau(  12) = (   0.2500000   0.0000000   0.2041376  )
        13           Fe  tau(  13) = (   0.2500056   0.3535711   0.4054970  )
        14           Fe  tau(  14) = (   0.4166800   0.1178886   0.4055435  )
        15           Fe  tau(  15) = (   0.0833671   0.2357290   0.6047215  )
        16           Fe  tau(  16) = (   0.2500711   0.0000921   0.6047608  )
        17           Fe  tau(  17) = (   0.6666663   0.1178509   0.0000000  )
        18           Fe  tau(  18) = (   0.5000000   0.0000000   0.2041376  )
        19           Fe  tau(  19) = (   0.9999989   0.3535526   0.0000000  )
        20           Fe  tau(  20) = (   0.8333326   0.2357017   0.2041376  )
        21           Fe  tau(  21) = (   0.6666909   0.1178765   0.4055642  )
        22           Fe  tau(  22) = (   0.5000465   0.0000236   0.6046761  )
        23           Fe  tau(  23) = (   1.0000109   0.3535665   0.4055626  )
        24           Fe  tau(  24) = (   0.8333753   0.2357096   0.6046948  )
        25           Fe  tau(  25) = (   0.7499989   0.3535526   0.0000000  )
        26           Fe  tau(  26) = (   0.9166663   0.1178509   0.0000000  )
        27           Fe  tau(  27) = (   0.5833326   0.2357017   0.2041376  )
        28           Fe  tau(  28) = (   0.7500000   0.0000000   0.2041376  )
        29           Fe  tau(  29) = (   0.7500298   0.3535537   0.4055237  )
        30           Fe  tau(  30) = (   0.9166973   0.1178520   0.4055727  )
        31           Fe  tau(  31) = (   0.5833528   0.2357440   0.6048152  )
        32           Fe  tau(  32) = (   1.0833550   0.9428301   0.6047230  )
        33           Fe  tau(  33) = (   0.3333315   0.5892543   0.0000000  )
        34           Fe  tau(  34) = (   0.1666652   0.4714034   0.2041376  )
        35           Fe  tau(  35) = (   0.6666640   0.8249560   0.0000000  )
        36           Fe  tau(  36) = (   0.4999978   0.7071052   0.2041376  )
        37           Fe  tau(  37) = (   0.3333024   0.5893238   0.4055334  )
        38           Fe  tau(  38) = (   1.1666931   0.4714090   0.6046775  )
        39           Fe  tau(  39) = (   0.6666498   0.8250381   0.4055339  )
        40           Fe  tau(  40) = (   0.4999795   0.7072006   0.6047873  )
        41           Fe  tau(  41) = (   0.4166640   0.8249560   0.0000000  )
        42           Fe  tau(  42) = (   0.5833315   0.5892543   0.0000000  )
        43           Fe  tau(  43) = (   0.2499978   0.7071052   0.2041376  )
        44           Fe  tau(  44) = (   0.4166652   0.4714034   0.2041376  )
        45           Fe  tau(  45) = (   0.4166645   0.8250008   0.4055405  )
        46           Fe  tau(  46) = (   0.5833194   0.5893164   0.4055538  )
        47           Fe  tau(  47) = (   1.2499531   0.7071110   0.6047598  )
        48           Fe  tau(  48) = (   0.4166762   0.4714800   0.6046684  )
        49           Fe  tau(  49) = (   0.8333315   0.5892543   0.0000000  )
        50           Fe  tau(  50) = (   0.6666652   0.4714034   0.2041376  )
        51           Fe  tau(  51) = (   1.1666640   0.8249560   0.0000000  )
        52           Fe  tau(  52) = (   0.9999978   0.7071052   0.2041376  )
        53           Fe  tau(  53) = (   0.8333620   0.5892670   0.4055440  )
        54           Fe  tau(  54) = (   0.6666665   0.4714716   0.6046004  )
        55           Fe  tau(  55) = (   1.1666930   0.8249675   0.4055502  )
        56           Fe  tau(  56) = (   0.9999653   0.7071693   0.6047169  )
        57           Fe  tau(  57) = (   0.9166640   0.8249560   0.0000000  )
        58           Fe  tau(  58) = (   1.0833315   0.5892543   0.0000000  )
        59           Fe  tau(  59) = (   0.7499978   0.7071052   0.2041376  )
        60           Fe  tau(  60) = (   0.9166652   0.4714034   0.2041376  )
        61           Fe  tau(  61) = (   0.9166861   0.8249876   0.4054965  )
        62           Fe  tau(  62) = (   1.0833354   0.5892828   0.4055429  )
        63           Fe  tau(  63) = (   0.7499872   0.7071671   0.6046676  )
        64           Fe  tau(  64) = (   0.9166845   0.4714443   0.6048084  )

     number of k points=    10  Methfessel-Paxton smearing, width (Ry)=  0.0100
                       cart. coord. in units 2pi/alat
        k(    1) = (   0.0000000   0.0000000   0.0000000), wk =   0.0625000
        k(    2) = (   0.0000000   0.2651656   0.0000000), wk =   0.1250000
        k(    3) = (   0.0000000  -0.5303313   0.0000000), wk =   0.0625000
        k(    4) = (   0.2500000  -0.0883878   0.0000000), wk =   0.1250000
        k(    5) = (   0.2500000   0.1767779   0.0000000), wk =   0.1250000
        k(    6) = (   0.2500000  -0.6187190   0.0000000), wk =   0.1250000
        k(    7) = (   0.2500000  -0.3535534   0.0000000), wk =   0.1250000
        k(    8) = (  -0.5000000   0.1767755   0.0000000), wk =   0.0625000
        k(    9) = (  -0.5000000   0.4419412   0.0000000), wk =   0.1250000
        k(   10) = (  -0.5000000  -0.3535558   0.0000000), wk =   0.0625000

     Check: negative core charge=   -0.000039

     Initial potential from superposition of free atoms

     starting charge 1023.97194, renormalised to 1024.00000

     negative rho (up, down):  2.482E-02 2.555E-03
     Starting wfcs are  832 randomized atomic wfcs
     Checking if some PAW data can be deallocated...

     Self-consistent Calculation

     iteration #  1     ecut=    60.00 Ry     beta= 0.20
     Davidson diagonalization with overlap
     ethr =  1.00E-04,  avg # of iterations = 18.7

     negative rho (up, down):  1.515E-02 3.247E-03

     total energy              =  -21056.47358071 Ry
     Harris-Foulkes estimate   =  -21079.25249395 Ry
     estimated scf accuracy    <    1190.50344261 Ry

     total magnetization       =    69.01 Bohr mag/cell
     absolute magnetization    =    70.85 Bohr mag/cell

[...]

     iteration # 51     ecut=    60.00 Ry     beta= 0.20
     Davidson diagonalization with overlap
     c_bands:  3 eigenvalues not converged
     c_bands:  1 eigenvalues not converged
     ethr =  1.87E-06,  avg # of iterations = 20.7

[...]

     Magnetic moment per site:
     atom:    1    charge:   14.2648    magn:    2.6426    constr:    0.0000
     atom:    2    charge:   14.3384    magn:    2.4293    constr:    0.0000
     atom:    3    charge:   14.2647    magn:    2.6425    constr:    0.0000
     atom:    4    charge:   14.3386    magn:    2.4291    constr:    0.0000
     atom:    5    charge:   14.3528    magn:    2.4111    constr:    0.0000
     atom:    6    charge:   14.2789    magn:    2.6550    constr:    0.0000
     atom:    7    charge:   14.3527    magn:    2.4116    constr:    0.0000
     atom:    8    charge:   14.2793    magn:    2.6545    constr:    0.0000
     atom:    9    charge:   14.2649    magn:    2.6425    constr:    0.0000
     atom:   10    charge:   14.2649    magn:    2.6424    constr:    0.0000
     atom:   11    charge:   14.3384    magn:    2.4294    constr:    0.0000
[...]
     atom:   52    charge:   14.3367    magn:    2.4436    constr:    0.0000
     atom:   53    charge:   14.3490    magn:    2.4217    constr:    0.0000
     atom:   54    charge:   14.2841    magn:    2.6593    constr:    0.0000
     atom:   55    charge:   14.3489    magn:    2.4216    constr:    0.0000
     atom:   56    charge:   14.2839    magn:    2.6605    constr:    0.0000
     atom:   57    charge:   14.2648    magn:    2.6637    constr:    0.0000
     atom:   58    charge:   14.2648    magn:    2.6637    constr:    0.0000
     atom:   59    charge:   14.3368    magn:    2.4432    constr:    0.0000
     atom:   60    charge:   14.3368    magn:    2.4433    constr:    0.0000
     atom:   61    charge:   14.3488    magn:    2.4219    constr:    0.0000
     atom:   62    charge:   14.3489    magn:    2.4222    constr:    0.0000
     atom:   63    charge:   14.2840    magn:    2.6600    constr:    0.0000
     atom:   64    charge:   14.2834    magn:    2.6594    constr:    0.0000

     End of self-consistent calculation

 ------ SPIN UP ------------

[...]

 ------ SPIN DOWN ----------

[...]

          k = 0.2500-0.3536 0.0000 (128397 PWs)   bands (ev):

[...]

          k =-0.5000-0.3536 0.0000 (128560 PWs)   bands (ev):

   -97.3666 -97.3663 -97.3582 -97.3581 -97.3318 -97.3317 -97.3317 -97.3317
   -97.3295 -97.3293 -97.3281 -97.3281 -97.3187 -97.3184 -97.3184 -97.3181
   -97.3156 -97.3153 -97.3096 -97.3094 -97.3094 -97.3091 -97.3061 -97.3061
   -97.3061 -97.3061 -97.3053 -97.3053 -97.2846 -97.2846 -97.2845 -97.2844
   -97.2768 -97.2766 -97.2765 -97.2765 -97.2718 -97.2718 -97.2718 -97.2717
   -97.2550 -97.2549 -97.2549 -97.2548 -97.2547 -97.2546 -97.2546 -97.2546
   -97.2499 -97.2499 -97.2499 -97.2498 -97.2496 -97.2496 -97.2496 -97.2495
   -97.2327 -97.2326 -97.2326 -97.2326 -97.2281 -97.2280 -97.2278 -97.2277
   -63.6163 -63.6161 -63.6159 -63.6157 -63.6087 -63.6085 -63.6084 -63.6082
   -63.6079 -63.6077 -63.6036 -63.6035 -63.5981 -63.5978 -63.5920 -63.5920
   -63.5920 -63.5919 -63.5844 -63.5843 -63.5843 -63.5842 -63.5744 -63.5743
   -63.5697 -63.5695 -63.5637 -63.5636 -63.5624 -63.5624 -63.5401 -63.5400
   -63.5397 -63.5396 -63.5330 -63.5330 -63.5327 -63.5327 -63.5296 -63.5296
   -63.5295 -63.5295 -63.5263 -63.5263 -63.5238 -63.5237 -63.5237 -63.5237
   -63.5167 -63.5164 -63.5153 -63.5152 -63.5145 -63.5144 -63.5104 -63.5103
   -63.5102 -63.5101 -63.5089 -63.5089 -63.5088 -63.5088 -63.4703 -63.4702
   -63.4606 -63.4606 -63.4605 -63.4605 -63.4563 -63.4563 -63.4483 -63.4482
   -63.4467 -63.4465 -63.4291 -63.4291 -63.4111 -63.4111 -63.4110 -63.4109
   -63.4109 -63.4108 -63.4064 -63.4061 -63.4000 -63.4000 -63.4000 -63.3999
   -63.3991 -63.3990 -63.3990 -63.3990 -63.3831 -63.3831 -63.3826 -63.3826
   -63.3772 -63.3772 -63.3772 -63.3771 -63.3709 -63.3707 -63.3689 -63.3688
   -63.3688 -63.3687 -63.3570 -63.3569 -63.3569 -63.3569 -63.3558 -63.3556
   -63.3463 -63.3463 -63.3412 -63.3411 -63.3349 -63.3348 -63.3317 -63.3316
   -63.3316 -63.3316 -63.3228 -63.3228 -63.3191 -63.3190 -63.3155 -63.3154
   -63.3097 -63.3097 -63.3081 -63.3081 -63.3045 -63.3045 -63.3044 -63.3044
   -63.3026 -63.3025 -63.3019 -63.3019 -63.3018 -63.3018 -63.2979 -63.2979
   -63.2979 -63.2978 -63.2956 -63.2955 -63.2932 -63.2931 -63.2902 -63.2900
   -63.2873 -63.2872 -63.2831 -63.2831 -63.2803 -63.2803 -63.2783 -63.2782
   -63.2782 -63.2782 -63.2778 -63.2778 -63.2766 -63.2766 -63.2738 -63.2738
   -63.2737 -63.2737 -63.2678 -63.2678 -63.2666 -63.2665 -63.2665 -63.2664
   -63.2655 -63.2654 -63.2654 -63.2653 -63.2557 -63.2556 -63.2511 -63.2510
   -63.2510 -63.2510 -63.2495 -63.2493 -63.2459 -63.2459 -63.2448 -63.2446
   -19.3194 -19.3190 -18.7341 -18.7340 -18.0316 -18.0314 -17.4883 -17.4881
   -16.7306 -16.7306 -16.7304 -16.7304 -16.3243 -16.3240 -15.8858 -15.8858
   -15.8857 -15.8857 -15.8799 -15.8796 -15.7891 -15.7890 -15.7467 -15.7466
   -15.7463 -15.7462 -15.3216 -15.3215 -15.3215 -15.3213 -15.3202 -15.3198
   -15.1155 -15.1155 -14.8517 -14.8516 -14.8195 -14.8194 -14.8193 -14.8192
   -14.7599 -14.7596 -14.7181 -14.7180 -14.7179 -14.7178 -14.5534 -14.5532
   -14.5444 -14.5443 -14.5245 -14.5238 -14.2783 -14.2780 -14.2671 -14.2670
   -14.2670 -14.2669 -14.0509 -14.0507 -14.0012 -14.0010 -13.9451 -13.9449
   -13.8424 -13.8422 -13.7525 -13.7524 -13.7521 -13.7521 -13.7484 -13.7484
   -13.7293 -13.7290 -13.7193 -13.7189 -13.6251 -13.6250 -13.6249 -13.6247
   -13.6157 -13.6156 -13.6154 -13.6153 -13.6129 -13.6128 -13.6126 -13.6125
   -13.4042 -13.4040 -13.3882 -13.3881 -13.2590 -13.2590 -13.2587 -13.2587
   -13.2495 -13.2493 -13.1990 -13.1990 -13.1988 -13.1988 -13.1818 -13.1817
   -13.1702 -13.1693 -13.1619 -13.1619 -13.1618 -13.1616 -13.1284 -13.1283
   -13.1282 -13.1281 -13.1248 -13.1247 -13.1245 -13.1245 -13.1151 -13.1143
   -13.0774 -13.0773 -13.0771 -13.0770 -13.0199 -13.0199 -13.0196 -13.0195
   -13.0132 -13.0130 -13.0129 -13.0127 -13.0083 -13.0080 -12.9956 -12.9951
   -12.9422 -12.9419 -12.8082 -12.8077 -12.7457 -12.7457 -12.7456 -12.7456
   -12.7314 -12.7309 -12.6791 -12.6790 -12.6789 -12.6788 -12.5749 -12.5747
   -12.5510 -12.5509 -12.5507 -12.5506 -12.5178 -12.5174 -12.5121 -12.5118
   -12.4925 -12.4921 -12.4464 -12.4462 -12.3164 -12.3162 -12.2981 -12.2978
   -12.2324 -12.2323 -12.2264 -12.2261 -12.1942 -12.1941 -12.1940 -12.1939
   -12.1881 -12.1878 -12.1009 -12.1007 -12.1006 -12.1004 -12.0900 -12.0897
   -12.0478 -12.0471 -11.9651 -11.9651 -11.8091 -11.8090 -11.7587 -11.7582
   -11.7163 -11.7156 -11.6398 -11.6397 -11.4518 -11.4514 -11.4452 -11.4450
   -11.3999 -11.3997 -11.3932 -11.3929 -11.2861 -11.2861 -11.2860 -11.2860
   -11.2803 -11.2801 -11.2109 -11.2108 -11.2040 -11.2035 -11.1607 -11.1606
   -11.1530 -11.1526 -11.0547 -11.0546 -11.0415 -11.0415 -11.0413 -11.0413
[...]
   -10.7740 -10.7739 -10.7736 -10.7735 -10.7416 -10.7413 -10.7080 -10.7078
   -10.6505 -10.6502 -10.5933 -10.5931 -10.5112 -10.5112 -10.5082 -10.5081
   -10.5079 -10.5078 -10.5036 -10.5033 -10.4695 -10.4693 -10.4623 -10.4621
   -10.4520 -10.4518 -10.4517 -10.4516 -10.4392 -10.4392 -10.4390 -10.4390
   -10.4174 -10.4170 -10.3744 -10.3741 -10.3715 -10.3714 -10.3711 -10.3711
   -10.3499 -10.3493 -10.3431 -10.3429 -10.3415 -10.3410 -10.3096 -10.3095
   -10.3000 -10.2999 -10.2725 -10.2725 -10.2724 -10.2723 -10.2571 -10.2571
   -10.2571 -10.2570 -10.2478 -10.2476 -10.2137 -10.2134 -10.1535 -10.1535
   -10.1370 -10.1369 -10.1274 -10.1272 -10.1035 -10.1033 -10.0742 -10.0741
   -10.0740 -10.0739 -10.0714 -10.0714 -10.0712 -10.0712 -10.0580 -10.0579
   -10.0570 -10.0569 -10.0569 -10.0569 -10.0490 -10.0486  -9.9975  -9.9974
    -9.9959  -9.9958  -9.9957  -9.9956  -9.9807  -9.9807  -9.9706  -9.9706
    -9.9704  -9.9703  -9.8878  -9.8876  -9.8781  -9.8781  -9.8779  -9.8779
    -9.6830  -9.6830  -9.6709  -9.6708  -9.5882  -9.5878  -9.4504  -9.4504
    -9.4503  -9.4503  -9.3612  -9.3604  -9.3594  -9.3593

     the Fermi energy is   -12.2230 ev

!    total energy              =  -21072.40173663 Ry
     Harris-Foulkes estimate   =  -21072.40173581 Ry
     estimated scf accuracy    <          5.8E-11 Ry

     total all-electron energy =   -162915.380009 Ry

     The total energy is the sum of the following terms:

     one-electron contribution = -737057.99706400 Ry
     hartree contribution      =  368063.43825150 Ry
     xc contribution           =   -2228.13159231 Ry
     ewald contribution        =  355025.07532326 Ry
     Dispersion Correction     =      -1.36915810 Ry
     one-center paw contrib.   =   -4873.41765029 Ry
     smearing contrib. (-TS)   =       0.00015332 Ry

     total magnetization       =   163.11 Bohr mag/cell
     absolute magnetization    =   170.52 Bohr mag/cell

     convergence has been achieved in  40 iterations

     negative rho (up, down):  1.156E-02 1.218E-01

     Forces acting on atoms (cartesian axes, Ry/au):

     atom    1 type  1   force =    -0.00000632   -0.00000064    0.00904900
     atom    2 type  1   force =     0.00000942   -0.00000329   -0.00807287
     atom    3 type  1   force =     0.00001865    0.00002048    0.00908658
     atom    4 type  1   force =    -0.00003496    0.00000162   -0.00795834
     atom    5 type  1   force =     0.00005505   -0.00000952    0.00016058
     atom    6 type  1   force =    -0.00000728    0.00000168   -0.00018698
     atom    7 type  1   force =     0.00000118   -0.00004491    0.00013380
     atom    8 type  1   force =    -0.00003238    0.00001985   -0.00010095
     atom    9 type  1   force =    -0.00003105    0.00003838    0.00903984
     atom   10 type  1   force =     0.00002129   -0.00004561    0.00903202
     atom   11 type  1   force =     0.00001780   -0.00009025   -0.00801724
     atom   12 type  1   force =    -0.00008130    0.00004263   -0.00798820
     atom   13 type  1   force =     0.00000245    0.00001598    0.00010220
     atom   14 type  1   force =     0.00002670    0.00000473    0.00016066
     atom   15 type  1   force =     0.00007421    0.00002966   -0.00022359
     atom   16 type  1   force =     0.00009686    0.00009950   -0.00017494
     atom   17 type  1   force =     0.00002293    0.00002342    0.00906140
     atom   18 type  1   force =     0.00001759   -0.00001623   -0.00789675
     atom   19 type  1   force =    -0.00002895   -0.00001412    0.00906154
     atom   20 type  1   force =     0.00008528   -0.00011002   -0.00798217
     atom   21 type  1   force =    -0.00003498    0.00000613    0.00016055
     atom   22 type  1   force =    -0.00000170   -0.00004123   -0.00008919
     atom   23 type  1   force =     0.00000506    0.00003278    0.00015824
     atom   24 type  1   force =     0.00002317   -0.00003950   -0.00022368
     atom   25 type  1   force =     0.00000422   -0.00000648    0.00906264
     atom   26 type  1   force =    -0.00002045    0.00002896    0.00910311
     atom   27 type  1   force =     0.00004926   -0.00007308   -0.00797157
     atom   28 type  1   force =     0.00008675   -0.00003887   -0.00801431
     atom   29 type  1   force =    -0.00001605    0.00001726    0.00015288
     atom   30 type  1   force =    -0.00000927    0.00000591    0.00024922
     atom   31 type  1   force =    -0.00006762   -0.00001027   -0.00001309
     atom   32 type  1   force =    -0.00005392   -0.00006458   -0.00022468
     atom   33 type  1   force =     0.00003011    0.00000647    0.00905680
     atom   34 type  1   force =     0.00001760   -0.00001351   -0.00789846
     atom   35 type  1   force =    -0.00001611   -0.00002513    0.00905944
     atom   36 type  1   force =    -0.00009645    0.00014535   -0.00799577
     atom   37 type  1   force =    -0.00005317    0.00001850    0.00014627
     atom   38 type  1   force =     0.00003422   -0.00001356   -0.00008364
     atom   39 type  1   force =    -0.00000786    0.00005047    0.00014927
     atom   40 type  1   force =    -0.00000486   -0.00000369   -0.00014945
     atom   41 type  1   force =     0.00002265   -0.00003079    0.00908352
     atom   42 type  1   force =    -0.00000692    0.00000896    0.00907721
     atom   43 type  1   force =    -0.00000288    0.00009680   -0.00798525
     atom   44 type  1   force =    -0.00005679    0.00007983   -0.00798805
     atom   45 type  1   force =    -0.00001097    0.00000427    0.00014729
     atom   46 type  1   force =     0.00002657   -0.00004574    0.00023393
     atom   47 type  1   force =    -0.00012743   -0.00006236   -0.00017381
     atom   48 type  1   force =    -0.00001212   -0.00005979   -0.00010228
     atom   49 type  1   force =    -0.00002402   -0.00000995    0.00908627
     atom   50 type  1   force =     0.00001489   -0.00001206   -0.00798135
     atom   51 type  1   force =     0.00000289    0.00000550    0.00904599
     atom   52 type  1   force =     0.00001827    0.00004116   -0.00795527
     atom   53 type  1   force =     0.00003528   -0.00001499    0.00013349
     atom   54 type  1   force =    -0.00002362    0.00002964   -0.00008790
     atom   55 type  1   force =    -0.00001833   -0.00005823    0.00016195
     atom   56 type  1   force =    -0.00000724    0.00003258   -0.00010164
     atom   57 type  1   force =    -0.00002494    0.00004083    0.00903914
     atom   58 type  1   force =     0.00003580   -0.00003525    0.00902991
     atom   59 type  1   force =    -0.00004685    0.00008466   -0.00798826
     atom   60 type  1   force =     0.00006016   -0.00006576   -0.00797147
     atom   61 type  1   force =    -0.00002159    0.00000157    0.00010139
     atom   62 type  1   force =    -0.00001895   -0.00002271    0.00015872
     atom   63 type  1   force =     0.00005877   -0.00001265   -0.00010119
     atom   64 type  1   force =     0.00003229    0.00005918   -0.00001339

     Total force =     0.000923     Total SCF correction =     0.000063

     bfgs converged in  13 scf cycles and  11 bfgs steps
     (criteria: energy <  7.3E-07 Ry, force <  3.9E-04 Ry/Bohr)

     End of BFGS Geometry Optimization

     Final energy   =  -21072.4017366276 Ry
Begin final coordinates

ATOMIC_POSITIONS (angstrom)
Fe       1.654912953   1.170200133   0.000000000    0   0   0
Fe       0.000000000   0.000000000   2.026984232    0   0   0
Fe       4.964738858   3.510600399   0.000000000    0   0   0
Fe       3.309825906   2.340400266   2.026984232    0   0   0
Fe       1.654661890   1.170247215   4.033433500
Fe       3.309824574   9.361847568   6.019062000
Fe       4.964632223   3.510826068   4.033115274
Fe       3.310435730   2.340420135   6.019569625
Fe       2.482363858   3.510600399   0.000000000    0   0   0
Fe       4.137287953   1.170200133   0.000000000    0   0   0
Fe       0.827450906   2.340400266   2.026984232    0   0   0
Fe       2.482375000   0.000000000   2.026984232    0   0   0
Fe       2.482342906   3.510542025   4.033818192
Fe       4.137168401   1.170195450   4.033457609
Fe       0.827549491   2.340409822   6.019929380
Fe       2.482080961  -0.000073816   6.019389093
Fe       6.619662953   1.170200133   0.000000000    0   0   0
Fe       4.964750000   0.000000000   2.026984232    0   0   0
Fe       9.929488858   3.510600399   0.000000000    0   0   0
Fe       8.274575906   2.340400266   2.026984232    0   0   0
Fe       6.620154118   1.169839146   4.033145718
Fe       4.964700074   0.000452790   6.019006254
Fe       9.929842604   3.510144067   4.033145190
Fe       8.274847075   2.340270617   6.019349558
Fe       7.447113858   3.510600399   0.000000000    0   0   0
Fe       9.102037953   1.170200133   0.000000000    0   0   0
Fe       5.792200906   2.340400266   2.026984232    0   0   0
Fe       7.447125000   0.000000000   2.026984232    0   0   0
Fe       7.447485590   3.510263662   4.032985241
Fe       9.102268292   1.170081757   4.032989790
Fe       5.792902295   2.340453729   6.017556828
Fe      10.757125757   9.361690395   6.019939819
Fe       3.309814764   5.851000664   0.000000000    0   0   0
Fe       1.654901811   4.680800531   2.026984232    0   0   0
Fe       6.619640670   8.191400930   0.000000000    0   0   0
Fe       4.964727717   7.021200797   2.026984232    0   0   0
Fe       3.309869637   5.851342705   4.033274746
Fe      11.584274593   4.681155587   6.018937782
Fe       6.619526129   8.191625026   4.033249001
Fe       4.964705426   7.021528184   6.018712483
Fe       4.137265670   8.191400930   0.000000000    0   0   0
Fe       5.792189764   5.851000664   0.000000000    0   0   0
Fe       2.482352717   7.021200797   2.026984232    0   0   0
Fe       4.137276811   4.680800531   2.026984232    0   0   0
Fe       4.137200018   8.191746831   4.033087049
Fe       5.792009033   5.851488365   4.032780895
Fe      12.412267781   7.021648200   6.019388957
Fe       4.137323280   4.681395834   6.018683529
Fe       8.274564764   5.851000664   0.000000000    0   0   0
Fe       6.619651811   4.680800531   2.026984232    0   0   0
Fe      11.584390670   8.191400930   0.000000000    0   0   0
Fe       9.929477717   7.021200797   2.026984232    0   0   0
Fe       8.274597420   5.851293310   4.033110107
Fe       6.619791422   4.680885948   6.017414674
Fe      11.584653583   8.191793564   4.033435440
Fe       9.929491780   7.020814030   6.019562082
Fe       9.102015670   8.191400930   0.000000000    0   0   0
Fe      10.756939764   5.851000664   0.000000000    0   0   0
Fe       7.447102717   7.021200797   2.026984232    0   0   0
Fe       9.102026811   4.680800531   2.026984232    0   0   0
Fe       9.102281249   8.191537826   4.033833923
Fe      10.757191081   5.851240176   4.033461809
Fe       7.446781694   7.021558006   6.018644921
Fe       9.101993727   4.680316812   6.017555955
End final coordinates

     Writing output data file Fe_paper_480c_ESM_pn5.save/

     General routines

     Parallel routines

   This run was terminated on:  19:49:38  17Jun2022

   JOB DONE.