     Program PWSCF v.6.4.1 starts on 18Jun2022 at 16:10:29

     K-points division:     npool     =       8
     R & G space division:  proc/nbgrp/npool/nimage =      20
     Waiting for input...
     Reading input from standard input
Warning: card &CELL ignored
Warning: card / ignored

     Current dimensions of program PWSCF are:
     Max number of different atomic species (ntypx) = 10
     Max number of k-points (npk) =  40000
     Max angular momentum in pseudopotentials (lmaxx) =  3

     IMPORTANT: XC functional enforced from input :
     Exchange-correlation      = PBE ( 1  4  3  4 0 0)
     Any further DFT definition will be discarded
     Please, verify this is what you really want

               file Fe.pbe-spn-kjpaw_psl.0.2.1.UPF: wavefunction(s)  3D renormalized

     Parameters for Dispersion (Grimme-D2) Correction:
       atom      VdW radius       C_6

        Fe         2.952        374.666
        N          2.640         42.670
        H          1.892          4.857

     bravais-lattice index     =            0
     lattice parameter (alat)  =      18.7640  a.u.
     unit-cell volume          =   16360.3163 (a.u.)^3
     number of atoms/cell      =           66
     number of atomic types    =            3
     number of electrons       =      1030.00
     number of Kohn-Sham states=          618
     kinetic-energy cutoff     =      60.0000  Ry
     charge density cutoff     =     480.0000  Ry
     convergence threshold     =      1.0E-08
     mixing beta               =       0.2000
     number of iterations used =           10  local-TF  mixing
     Exchange-correlation      = PBE ( 1  4  3  4 0 0)
     nstep                     =           50

     Effective Screening Medium Method
     Boundary Conditions: Metal-Slab-Metal
     field strength                   =    -0.02 Ry/a.u.
     grid points for fit at edges     =        4

     celldm(1)=  18.764036  celldm(2)=   0.000000  celldm(3)=   0.000000
     celldm(4)=   0.000000  celldm(5)=   0.000000  celldm(6)=   0.000000

     crystal axes: (cart. coord. in units of alat)
               a(1) = (   1.000000   0.000000   0.000000 )
               a(2) = (   0.333330   0.942807   0.000000 )
               a(3) = (   0.000000   0.000000   2.626577 )

     reciprocal axes: (cart. coord. in units 2 pi/alat)
               b(1) = (  1.000000 -0.353551  0.000000 )
               b(2) = (  0.000000  1.060663  0.000000 )
               b(3) = (  0.000000  0.000000  0.380724 )

     PseudoPot. # 1 for Fe read from file:
     ../../SSSP/Fe.pbe-spn-kjpaw_psl.0.2.1.UPF
     MD5 check sum: e86618425769142926afa95317d90200
     Pseudo is Projector augmented-wave + core cor, Zval = 16.0
     Generated using "atomic" code by A. Dal Corso v.5.0.99 svn rev. 10869
     Shape of augmentation charge: PSQ
     Using radial grid of 1191 points,  6 beta functions with:
                l(1) =   0
                l(2) =   0
                l(3) =   1
                l(4) =   1
                l(5) =   2
                l(6) =   2
     Q(r) pseudized with 0 coefficients

     PseudoPot. # 2 for N  read from file:
     ../../SSSP/N.pbe-n-radius_5.UPF
     MD5 check sum: 16739722b17309cd8fe442a2ace49922
     Pseudo is Ultrasoft + core correction, Zval =  5.0
     Generated using "atomic" code by A. Dal Corso v.5.1
     Using radial grid of 1085 points,  4 beta functions with:
                l(1) =   0
                l(2) =   0
                l(3) =   1
                l(4) =   1
     Q(r) pseudized with 0 coefficients

     PseudoPot. # 3 for H  read from file:
     ../../SSSP/H.pbe-rrkjus_psl.1.0.0.UPF
     MD5 check sum: f52b6d4d1c606e5624b1dc7b2218f220
     Pseudo is Ultrasoft, Zval =  1.0
     Generated using "atomic" code by A. Dal Corso v.5.1
     Using radial grid of  929 points,  2 beta functions with:
                l(1) =   0
                l(2) =   0
     Q(r) pseudized with 0 coefficients

     atomic species   valence    mass     pseudopotential
        Fe            16.00    55.84500     Fe( 1.00)
        N              5.00    14.00700     N ( 1.00)
        H              1.00     1.00800     H ( 1.00)

     Starting magnetic structure
     atomic species   magnetization
        Fe           0.100
        N            0.100
        H            0.100

     No symmetry found

   Cartesian axes

     site n.     atom                  positions (alat units)
         1           Fe  tau(   1) = (   0.1666663   0.1178509   0.0000000  )
         2           Fe  tau(   2) = (   0.0000000   0.0000000   0.2041376  )
         3           Fe  tau(   3) = (   0.4999989   0.3535526   0.0000000  )
         4           Fe  tau(   4) = (   0.3333326   0.2357017   0.2041376  )
         5           Fe  tau(   5) = (   0.1691451   0.1175380   0.4054788  )
         6           Fe  tau(   6) = (   0.3359303   0.9393070   0.6059911  )
         7           Fe  tau(   7) = (   0.4994822   0.3560320   0.4071730  )
         8           Fe  tau(   8) = (   0.3417929   0.2351471   0.6065191  )
         9           Fe  tau(   9) = (   0.2499989   0.3535526   0.0000000  )
        10           Fe  tau(  10) = (   0.4166663   0.1178509   0.0000000  )
        11           Fe  tau(  11) = (   0.0833326   0.2357017   0.2041376  )
        12           Fe  tau(  12) = (   0.2500000   0.0000000   0.2041376  )
        13           Fe  tau(  13) = (   0.2500362   0.3534528   0.4077585  )
        14           Fe  tau(  14) = (   0.4190212   0.1195339   0.4060495  )
        15           Fe  tau(  15) = (   0.0919150   0.2318486   0.6070158  )
        16           Fe  tau(  16) = (   0.2526514   0.0018836   0.6060250  )
        17           Fe  tau(  17) = (   0.6666663   0.1178509   0.0000000  )
        18           Fe  tau(  18) = (   0.5000000   0.0000000   0.2041376  )
        19           Fe  tau(  19) = (   0.9999989   0.3535526   0.0000000  )
        20           Fe  tau(  20) = (   0.8333326   0.2357017   0.2041376  )
        21           Fe  tau(  21) = (   0.6688123   0.1165173   0.4071450  )
        22           Fe  tau(  22) = (   0.5022786   0.0081480   0.6065308  )
        23           Fe  tau(  23) = (   1.0003764   0.3509314   0.4068495  )
        24           Fe  tau(  24) = (   0.8517959   0.2096271   0.6022363  )
        25           Fe  tau(  25) = (   0.7499989   0.3535526   0.0000000  )
        26           Fe  tau(  26) = (   0.9166663   0.1178509   0.0000000  )
        27           Fe  tau(  27) = (   0.5833326   0.2357017   0.2041376  )
        28           Fe  tau(  28) = (   0.7500000   0.0000000   0.2041376  )
        29           Fe  tau(  29) = (   0.7499320   0.3534625   0.4087377  )
        30           Fe  tau(  30) = (   0.9196115   0.1133960   0.4029107  )
        31           Fe  tau(  31) = (   0.5923702   0.2420328   0.6046126  )
        32           Fe  tau(  32) = (   1.0848628   0.9334482   0.6074542  )
        33           Fe  tau(  33) = (   0.3333315   0.5892543   0.0000000  )
        34           Fe  tau(  34) = (   0.1666652   0.4714034   0.2041376  )
        35           Fe  tau(  35) = (   0.6666640   0.8249560   0.0000000  )
        36           Fe  tau(  36) = (   0.4999978   0.7071052   0.2041376  )
        37           Fe  tau(  37) = (   0.3307812   0.5894883   0.4059097  )
        38           Fe  tau(  38) = (   1.1584193   0.4708423   0.6062454  )
        39           Fe  tau(  39) = (   0.6672050   0.8273888   0.4054979  )
        40           Fe  tau(  40) = (   0.4975659   0.7107165   0.6060575  )
        41           Fe  tau(  41) = (   0.4166640   0.8249560   0.0000000  )
        42           Fe  tau(  42) = (   0.5833315   0.5892543   0.0000000  )
        43           Fe  tau(  43) = (   0.2499978   0.7071052   0.2041376  )
        44           Fe  tau(  44) = (   0.4166652   0.4714034   0.2041376  )
        45           Fe  tau(  45) = (   0.4165267   0.8248542   0.4038341  )
        46           Fe  tau(  46) = (   0.5800985   0.5935277   0.4029319  )
        47           Fe  tau(  47) = (   1.2459555   0.7042436   0.6067424  )
        48           Fe  tau(  48) = (   0.4083885   0.4759910   0.6074840  )
        49           Fe  tau(  49) = (   0.8333315   0.5892543   0.0000000  )
        50           Fe  tau(  50) = (   0.6666652   0.4714034   0.2041376  )
        51           Fe  tau(  51) = (   1.1666640   0.8249560   0.0000000  )
        52           Fe  tau(  52) = (   0.9999978   0.7071052   0.2041376  )
        53           Fe  tau(  53) = (   0.8309632   0.5904573   0.4068724  )
        54           Fe  tau(  54) = (   0.6482797   0.4974281   0.6022087  )
        55           Fe  tau(  55) = (   1.1660452   0.8224699   0.4058940  )
        56           Fe  tau(  56) = (   0.9966971   0.6995147   0.6061981  )
        57           Fe  tau(  57) = (   0.9166640   0.8249560   0.0000000  )
        58           Fe  tau(  58) = (   1.0833315   0.5892543   0.0000000  )
        59           Fe  tau(  59) = (   0.7499978   0.7071052   0.2041376  )
        60           Fe  tau(  60) = (   0.9166652   0.4714034   0.2041376  )
        61           Fe  tau(  61) = (   0.9165828   0.8250197   0.4077553  )
        62           Fe  tau(  62) = (   1.0807578   0.5874465   0.4059856  )
        63           Fe  tau(  63) = (   0.7491796   0.7164425   0.6070503  )
        64           Fe  tau(  64) = (   0.9077670   0.4650564   0.6044662  )
        65           N   tau(  65) = (   0.7501106   0.3535837   0.6378440  )
        66           H   tau(  66) = (   0.4629843   0.8577427   0.7020476  )

     number of k points=    10  Methfessel-Paxton smearing, width (Ry)=  0.0100
                       cart. coord. in units 2pi/alat
        k(    1) = (   0.0000000   0.0000000   0.0000000), wk =   0.0625000
        k(    2) = (   0.0000000   0.2651656   0.0000000), wk =   0.1250000
        k(    3) = (   0.0000000  -0.5303313   0.0000000), wk =   0.0625000
        k(    4) = (   0.2500000  -0.0883878   0.0000000), wk =   0.1250000
        k(    5) = (   0.2500000   0.1767779   0.0000000), wk =   0.1250000
        k(    6) = (   0.2500000  -0.6187190   0.0000000), wk =   0.1250000
        k(    7) = (   0.2500000  -0.3535534   0.0000000), wk =   0.1250000
        k(    8) = (  -0.5000000   0.1767755   0.0000000), wk =   0.0625000
        k(    9) = (  -0.5000000   0.4419412   0.0000000), wk =   0.1250000
        k(   10) = (  -0.5000000  -0.3535558   0.0000000), wk =   0.0625000

     Check: negative core charge=   -0.000039

     Initial potential from superposition of free atoms

     starting charge 1029.97193, renormalised to 1030.00000

     negative rho (up, down):  2.477E-02 2.555E-03
     Starting wfcs are  837 randomized atomic wfcs
     Checking if some PAW data can be deallocated...

     Self-consistent Calculation

     iteration #  1     ecut=    60.00 Ry     beta= 0.20
     Davidson diagonalization with overlap
     ethr =  1.00E-04,  avg # of iterations = 18.3

     negative rho (up, down):  1.520E-02 3.057E-03

     total energy              =  -21078.62128118 Ry
     Harris-Foulkes estimate   =  -21100.39106814 Ry
     estimated scf accuracy    <    1131.84424587 Ry

[...]
     atom:   56    charge:   12.5875    magn:    2.3546    constr:    0.0000
     atom:   57    charge:   12.5864    magn:    2.3486    constr:    0.0000
     atom:   58    charge:   12.5862    magn:    2.3533    constr:    0.0000
     atom:   59    charge:   12.5752    magn:    2.2100    constr:    0.0000
     atom:   60    charge:   12.5741    magn:    2.2236    constr:    0.0000
     atom:   61    charge:   12.5744    magn:    2.2073    constr:    0.0000
     atom:   62    charge:   12.5779    magn:    2.1886    constr:    0.0000
     atom:   63    charge:   12.5886    magn:    2.3515    constr:    0.0000
     atom:   64    charge:   12.5835    magn:    2.1359    constr:    0.0000
     atom:   65    charge:    3.7423    magn:   -0.1365    constr:    0.0000
     atom:   66    charge:    0.9776    magn:   -0.0243    constr:    0.0000

     End of self-consistent calculation

 ------ SPIN UP ------------

[...]

 ------ SPIN DOWN ----------

[...]

          k = 0.2500-0.3536 0.0000 (128397 PWs)   bands (ev):

[...]

          k =-0.5000-0.3536 0.0000 (128560 PWs)   bands (ev):

   -98.0324 -98.0319 -97.6085 -97.6064 -97.5081 -97.5068 -97.4973 -97.4594
   -97.4513 -97.3896 -97.3772 -97.3702 -97.3671 -97.3606 -97.3561 -97.3531
   -97.3428 -97.3419 -97.3394 -97.3344 -97.3322 -97.3300 -97.3261 -97.3259
   -97.3226 -97.3212 -97.3190 -97.3169 -97.3166 -97.3127 -97.3119 -97.3117
   -97.3105 -97.3087 -97.3072 -97.3014 -97.2988 -97.2977 -97.2910 -97.2908
   -97.2895 -97.2891 -97.2882 -97.2844 -97.2840 -97.2807 -97.2793 -97.2776
   -97.2721 -97.2670 -97.2639 -97.2629 -97.2618 -97.2609 -97.2596 -97.2594
   -97.2571 -97.2554 -97.2552 -97.2542 -97.2404 -97.2381 -97.2362 -97.2333
   -64.5709 -64.5628 -64.0410 -64.0290 -63.9682 -63.9587 -63.9269 -63.9216
   -63.7520 -63.7303 -63.7136 -63.7003 -63.6969 -63.6905 -63.6876 -63.6843
   -63.6681 -63.6666 -63.6556 -63.6526 -63.6493 -63.6443 -63.6345 -63.6295
   -63.6217 -63.6204 -63.6187 -63.6169 -63.6137 -63.6077 -63.6057 -63.6038
   -63.6034 -63.6006 -63.5949 -63.5927 -63.5898 -63.5821 -63.5815 -63.5791
   -63.5791 -63.5771 -63.5702 -63.5683 -63.5678 -63.5635 -63.5624 -63.5619
   -63.5590 -63.5561 -63.5514 -63.5490 -63.5453 -63.5406 -63.5393 -63.5388
   -63.5371 -63.5334 -63.5324 -63.5318 -63.5306 -63.5291 -63.5286 -63.5271
   -63.5268 -63.5227 -63.5226 -63.5225 -63.5181 -63.5132 -63.5105 -63.5092
   -63.5065 -63.5046 -63.5016 -63.4927 -63.4839 -63.4825 -63.4810 -63.4758
   -63.4731 -63.4710 -63.4633 -63.4627 -63.4590 -63.4579 -63.4422 -63.4415
   -63.4407 -63.4376 -63.4362 -63.4335 -63.4323 -63.4264 -63.4260 -63.4249
   -63.4229 -63.4174 -63.4150 -63.4126 -63.4119 -63.4085 -63.4076 -63.4047
   -63.4020 -63.4008 -63.3969 -63.3920 -63.3890 -63.3888 -63.3879 -63.3870
   -63.3843 -63.3836 -63.3814 -63.3798 -63.3789 -63.3771 -63.3761 -63.3742
   -63.3710 -63.3679 -63.3673 -63.3655 -63.3595 -63.3576 -63.3547 -63.3538
   -63.3530 -63.3509 -63.3487 -63.3470 -63.3463 -63.3443 -63.3407 -63.3371
   -63.3367 -63.3328 -63.3318 -63.3283 -63.3269 -63.3256 -63.3246 -63.3246
   -63.3232 -63.3225 -63.3206 -63.3192 -63.3176 -63.3167 -63.3161 -63.3155
   -63.3142 -63.3120 -63.3094 -63.3086 -63.3074 -63.3070 -63.3041 -63.3034
   -63.2989 -63.2988 -63.2971 -63.2943 -63.2914 -63.2912 -63.2903 -63.2888
   -63.2885 -63.2882 -63.2879 -63.2876 -63.2863 -63.2846 -63.2844 -63.2841
   -63.2818 -63.2805 -63.2780 -63.2766 -63.2753 -63.2731 -63.2725 -63.2700
   -63.2682 -63.2675 -63.2660 -63.2636 -63.2601 -63.2601 -63.2569 -63.2536
   -27.9680 -19.4010 -19.3561 -18.8649 -18.8380 -18.4306 -18.3800 -18.2647
   -17.8661 -17.7143 -17.3682 -17.2489 -17.1513 -16.7556 -16.7032 -16.6836
   -16.5366 -16.3078 -16.0759 -15.9208 -15.9009 -15.8837 -15.8749 -15.8669
   -15.8008 -15.7984 -15.7673 -15.7182 -15.7015 -15.6229 -15.4613 -15.3492
   -15.3435 -15.3320 -15.3164 -15.2631 -15.2262 -15.1465 -14.9628 -14.8864
   -14.8858 -14.8711 -14.8417 -14.8291 -14.8189 -14.7745 -14.7430 -14.7102
   -14.7015 -14.6453 -14.5828 -14.5784 -14.5540 -14.5424 -14.5346 -14.5217
   -14.3508 -14.3258 -14.3133 -14.3106 -14.2831 -14.2522 -14.2139 -14.0832
   -14.0483 -14.0299 -14.0199 -13.9792 -13.9749 -13.9642 -13.8912 -13.8585
   -13.8379 -13.8217 -13.7870 -13.7830 -13.7766 -13.7509 -13.7418 -13.7370
   -13.7226 -13.7214 -13.6666 -13.6466 -13.6456 -13.6394 -13.6377 -13.6303
   -13.6004 -13.5985 -13.5980 -13.5636 -13.5565 -13.4767 -13.4319 -13.4309
   -13.4266 -13.4189 -13.3609 -13.3350 -13.3074 -13.2924 -13.2894 -13.2845
   -13.2738 -13.2705 -13.2650 -13.2567 -13.2184 -13.2069 -13.2060 -13.1988
   -13.1949 -13.1880 -13.1818 -13.1771 -13.1695 -13.1631 -13.1571 -13.1514
   -13.1403 -13.1275 -13.1201 -13.1156 -13.1130 -13.1117 -13.1016 -13.0856
   -13.0805 -13.0687 -13.0505 -13.0465 -13.0434 -13.0425 -13.0386 -13.0341
   -13.0183 -13.0093 -12.9986 -12.9915 -12.9494 -12.8621 -12.8356 -12.8200
   -12.8070 -12.7925 -12.7881 -12.7838 -12.7792 -12.7709 -12.7549 -12.7326
   -12.7254 -12.6595 -12.6341 -12.6231 -12.6172 -12.6062 -12.5944 -12.5930
   -12.5816 -12.5640 -12.5453 -12.5323 -12.5222 -12.5068 -12.4549 -12.4319
   -12.4091 -12.3636 -12.3179 -12.3164 -12.2949 -12.2709 -12.2684 -12.2587
   -12.2477 -12.2147 -12.2121 -12.2006 -12.1727 -12.1681 -12.1550 -12.1436
   -12.1247 -12.1034 -12.0992 -12.0928 -12.0191 -11.8942 -11.8757 -11.8531
   -11.7573 -11.7524 -11.7489 -11.6210 -11.6088 -11.5901 -11.5627 -11.5049
   -11.4799 -11.4733 -11.4731 -11.4074 -11.3849 -11.3733 -11.3456 -11.3315
   -11.3188 -11.3099 -11.2581 -11.2284 -11.2270 -11.2198 -11.2196 -11.1814
   -11.1278 -11.1124 -11.1065 -11.1020 -11.0916 -11.0851 -11.0513 -11.0305
[...]
   -10.6928 -10.6898 -10.6751 -10.6378 -10.6333 -10.6251 -10.6167 -10.6126
   -10.5747 -10.5693 -10.5679 -10.5571 -10.5560 -10.5437 -10.5217 -10.5191
   -10.5089 -10.4953 -10.4918 -10.4811 -10.4756 -10.4702 -10.4630 -10.4624
   -10.4476 -10.4464 -10.4393 -10.4157 -10.4133 -10.4120 -10.4034 -10.3965
   -10.3868 -10.3847 -10.3802 -10.3742 -10.3717 -10.3608 -10.3525 -10.3485
   -10.3421 -10.3271 -10.3254 -10.3038 -10.3035 -10.3029 -10.2902 -10.2873
   -10.2800 -10.2760 -10.2752 -10.2751 -10.2742 -10.2556 -10.2419 -10.2382
   -10.2337 -10.2061 -10.2060 -10.1996 -10.1824 -10.1819 -10.1753 -10.1659
   -10.1579 -10.1529 -10.1464 -10.1173 -10.1143 -10.1064 -10.1062 -10.0941
   -10.0907 -10.0820 -10.0718 -10.0691 -10.0672 -10.0670 -10.0612 -10.0587
   -10.0544 -10.0410 -10.0321 -10.0211 -10.0171 -10.0128 -10.0097  -9.9931
    -9.9880  -9.9798  -9.9544  -9.9470  -9.9324  -9.9323  -9.9271  -9.9051
    -9.9013  -9.8873  -9.7405  -9.7303  -9.6949  -9.6920  -9.6411  -9.6211
    -9.5158  -9.4813  -9.4682  -9.4622  -9.4557  -9.4132  -9.4131  -9.3827
    -9.3811  -9.3672

     the Fermi energy is   -12.2260 ev

!    total energy              =  -21093.94274582 Ry
     Harris-Foulkes estimate   =  -21093.94274591 Ry
     estimated scf accuracy    <          1.7E-11 Ry

     The total energy is the sum of the following terms:

     one-electron contribution = -743837.17138453 Ry
     hartree contribution      =  371450.46544048 Ry
     xc contribution           =   -2234.21603201 Ry
     ewald contribution        =  358401.81769680 Ry
     Dispersion Correction     =      -1.39546860 Ry
     one-center paw contrib.   =   -4873.44650950 Ry
     smearing contrib. (-TS)   =       0.00351153 Ry

     total magnetization       =   161.41 Bohr mag/cell
     absolute magnetization    =   168.31 Bohr mag/cell

     convergence has been achieved in  36 iterations

     negative rho (up, down):  1.163E-02 1.218E-01

     Forces acting on atoms (cartesian axes, Ry/au):

     atom    1 type  1   force =     0.00011567    0.00076516    0.00847718
     atom    2 type  1   force =     0.00268030   -0.00409826   -0.01545149
     atom    3 type  1   force =    -0.00092440   -0.00085074    0.00847927
     atom    4 type  1   force =     0.00080767    0.00134257   -0.00640466
     atom    5 type  1   force =     0.00012576   -0.00000371   -0.00002751
     atom    6 type  1   force =     0.00003045   -0.00004867    0.00005782
     atom    7 type  1   force =    -0.00008366   -0.00001010   -0.00006042
     atom    8 type  1   force =     0.00001677    0.00004109    0.00020043
     atom    9 type  1   force =     0.00009359    0.00005939    0.00772266
     atom   10 type  1   force =    -0.00078278   -0.00057294    0.00816782
     atom   11 type  1   force =     0.00116194   -0.00029036   -0.00762712
     atom   12 type  1   force =     0.00042330    0.00035050   -0.01147941
     atom   13 type  1   force =     0.00000301    0.00002953   -0.00004046
     atom   14 type  1   force =     0.00003731    0.00001835    0.00004978
     atom   15 type  1   force =     0.00012408    0.00017057   -0.00017058
     atom   16 type  1   force =    -0.00001998   -0.00001155    0.00031706
     atom   17 type  1   force =    -0.00111977   -0.00057712    0.00850852
     atom   18 type  1   force =     0.00152856    0.00033723   -0.00637949
     atom   19 type  1   force =     0.00083881    0.00085905    0.00861723
     atom   20 type  1   force =    -0.00134044    0.00163718   -0.00212272
     atom   21 type  1   force =    -0.00003956   -0.00007831   -0.00006063
     atom   22 type  1   force =     0.00004935   -0.00000214    0.00025253
     atom   23 type  1   force =     0.00007486    0.00002749   -0.00005070
     atom   24 type  1   force =    -0.00001545    0.00001583   -0.00000702
     atom   25 type  1   force =     0.00006084   -0.00000258    0.00792844
     atom   26 type  1   force =    -0.00102082    0.00133750    0.00823531
     atom   27 type  1   force =     0.00132277    0.00088795   -0.00211273
     atom   28 type  1   force =     0.00013546   -0.00131507   -0.00666264
     atom   29 type  1   force =    -0.00002125   -0.00000996    0.00001761
     atom   30 type  1   force =     0.00001426   -0.00004840    0.00005157
     atom   31 type  1   force =     0.00004205    0.00002497   -0.00006423
     atom   32 type  1   force =    -0.00014128   -0.00007437   -0.00014236
     atom   33 type  1   force =     0.00007163   -0.00092745    0.00816389
     atom   34 type  1   force =    -0.00066012   -0.00117806   -0.00651768
     atom   35 type  1   force =     0.00077841   -0.00015144    0.00848212
     atom   36 type  1   force =    -0.00302830    0.00397283   -0.01546892
     atom   37 type  1   force =    -0.00012338   -0.00000981   -0.00008603
     atom   38 type  1   force =     0.00003366    0.00003169    0.00029787
     atom   39 type  1   force =     0.00003804    0.00013733   -0.00002876
     atom   40 type  1   force =    -0.00004145    0.00004053    0.00004776
     atom   41 type  1   force =     0.00013633    0.00005486    0.00905641
     atom   42 type  1   force =     0.00091409   -0.00138976    0.00820730
     atom   43 type  1   force =    -0.00080369   -0.00048406   -0.01056609
     atom   44 type  1   force =    -0.00118559    0.00054186   -0.00662189
     atom   45 type  1   force =     0.00000387    0.00000608   -0.00001564
     atom   46 type  1   force =    -0.00004111    0.00003563    0.00004504
     atom   47 type  1   force =    -0.00017725   -0.00010897    0.00005154
     atom   48 type  1   force =    -0.00013081   -0.00011900   -0.00015508
     atom   49 type  1   force =     0.00107108    0.00050916    0.00863061
     atom   50 type  1   force =     0.00115763   -0.00193073   -0.00206893
     atom   51 type  1   force =    -0.00081992    0.00038975    0.00819881
     atom   52 type  1   force =    -0.00133747   -0.00022009   -0.00655997
     atom   53 type  1   force =     0.00005469    0.00006483   -0.00004914
     atom   54 type  1   force =    -0.00000060   -0.00001472   -0.00000643
     atom   55 type  1   force =    -0.00006036   -0.00010617   -0.00009391
     atom   56 type  1   force =     0.00002194    0.00004197    0.00026613
     atom   57 type  1   force =     0.00011965    0.00005250    0.00773077
     atom   58 type  1   force =     0.00070980    0.00048086    0.00827937
     atom   59 type  1   force =     0.00011829    0.00119169   -0.00755923
     atom   60 type  1   force =    -0.00111176   -0.00081564   -0.00202551
     atom   61 type  1   force =     0.00001580    0.00000420   -0.00004889
     atom   62 type  1   force =    -0.00003734   -0.00003029    0.00005801
     atom   63 type  1   force =     0.00019696    0.00007190   -0.00018969
     atom   64 type  1   force =    -0.00003279   -0.00002443   -0.00003528
     atom   65 type  2   force =    -0.00001096   -0.00000079    0.00031297
     atom   66 type  3   force =    -0.00001636   -0.00002631    0.00031324

     Total force =     0.001022     Total SCF correction =     0.000021

     bfgs converged in  15 scf cycles and  11 bfgs steps
     (criteria: energy <  7.3E-07 Ry, force <  3.9E-04 Ry/Bohr)

     End of BFGS Geometry Optimization

     Final energy   =  -21093.9427458235 Ry
Begin final coordinates

ATOMIC_POSITIONS (angstrom)
Fe       1.654912953   1.170200133   0.000000000    0   0   0
Fe       0.000000000   0.000000000   2.026984232    0   0   0
Fe       4.964738858   3.510600399   0.000000000    0   0   0
Fe       3.309825906   2.340400266   2.026984232    0   0   0
Fe       1.679077928   1.168190762   4.031724406
Fe       3.336639466   9.326921754   6.022150439
Fe       4.958653691   3.536300269   4.048852346
Fe       3.395955193   2.333543128   6.036977389
Fe       2.482363858   3.510600399   0.000000000    0   0   0
Fe       4.137287953   1.170200133   0.000000000    0   0   0
Fe       0.827450906   2.340400266   2.026984232    0   0   0
Fe       2.482375000   0.000000000   2.026984232    0   0   0
Fe       2.482629625   3.510036879   4.058456960
Fe       4.160596991   1.187035630   4.038408396
Fe       0.910803844   2.298616170   6.046947783
Fe       2.507300293   0.017919446   6.025097573
Fe       6.619662953   1.170200133   0.000000000    0   0   0
Fe       4.964750000   0.000000000   2.026984232    0   0   0
Fe       9.929488858   3.510600399   0.000000000    0   0   0
Fe       8.274575906   2.340400266   2.026984232    0   0   0
Fe       6.641737333   1.155668585   4.048698678
Fe       4.986833351   0.083819261   6.036979037
Fe       9.934581676   3.483371017   4.045550129
Fe       8.459942316   2.079122401   5.979715933
Fe       7.447113858   3.510600399   0.000000000    0   0   0
Fe       9.102037953   1.170200133   0.000000000    0   0   0
Fe       5.792200906   2.340400266   2.026984232    0   0   0
Fe       7.447125000   0.000000000   2.026984232    0   0   0
Fe       7.446588704   3.509837508   4.063241520
Fe       9.132224388   1.124840676   4.001875953
Fe       5.881536088   2.403122434   6.008583020
Fe      10.775032259   9.269138096   6.049692229
Fe       3.309814764   5.851000664   0.000000000    0   0   0
Fe       1.654901811   4.680800531   2.026984232    0   0   0
Fe       6.619640670   8.191400930   0.000000000    0   0   0
Fe       4.964727717   7.021200797   2.026984232    0   0   0
Fe       3.284739243   5.853229306   4.037819234
Fe      11.499113576   4.676550716   6.034759722
Fe       6.625909697   8.214941513   4.032020505
Fe       4.940979607   7.058169146   6.022025100
Fe       4.137265670   8.191400930   0.000000000    0   0   0
Fe       5.792189764   5.851000664   0.000000000    0   0   0
Fe       2.482352717   7.021200797   2.026984232    0   0   0
Fe       4.137276811   4.680800531   2.026984232    0   0   0
Fe       4.136230767   8.190614928   4.011214113
Fe       5.759450675   5.894635152   4.001956225
Fe      12.374571963   6.994697482   6.038734513
Fe       4.056492011   4.728894157   6.049777510
Fe       8.274564764   5.851000664   0.000000000    0   0   0
Fe       6.619651811   4.680800531   2.026984232    0   0   0
Fe      11.584390670   8.191400930   0.000000000    0   0   0
Fe       9.929477717   7.021200797   2.026984232    0   0   0
Fe       8.250436024   5.864633410   4.045774103
Fe       6.435562026   4.942180849   5.979134157
Fe      11.578310772   8.167003406   4.037652601
Fe       9.896944614   6.942374026   6.034398305
Fe       9.102015670   8.191400930   0.000000000    0   0   0
Fe      10.756939764   5.851000664   0.000000000    0   0   0
Fe       7.447102717   7.021200797   2.026984232    0   0   0
Fe       9.102026811   4.680800531   2.026984232    0   0   0
Fe       9.101665174   8.191926628   4.058395849
Fe      10.731546464   5.833253541   4.038467084
Fe       7.435178221   7.113577342   6.047192707
Fe       9.013971589   4.618024681   6.007081930
N        7.448046995   3.510939705   6.307553222
H        4.594373694   8.514690615   6.971743894
End final coordinates

     Writing output data file Fe_N_H_paper_480c_ESM_pn5.save/

     General routines

     Parallel routines

   This run was terminated on:  21:20:37  20Jun2022

   JOB DONE.