     Program PWSCF v.6.4.1 starts on 12Jun2022 at 21: 1:26

     K-points division:     npool     =       8
     R & G space division:  proc/nbgrp/npool/nimage =      20
     Waiting for input...
     Reading input from standard input
Warning: card &CELL ignored
Warning: card / ignored

     Current dimensions of program PWSCF are:
     Max number of different atomic species (ntypx) = 10
     Max number of k-points (npk) =  40000
     Max angular momentum in pseudopotentials (lmaxx) =  3

     IMPORTANT: XC functional enforced from input :
     Exchange-correlation      = PBE ( 1  4  3  4 0 0)
     Any further DFT definition will be discarded
     Please, verify this is what you really want

               file Fe.pbe-spn-kjpaw_psl.0.2.1.UPF: wavefunction(s)  3D renormalized

     Parameters for Dispersion (Grimme-D2) Correction:
       atom      VdW radius       C_6

        Fe         2.952        374.666
        N          2.640         42.670

     bravais-lattice index     =            0
     lattice parameter (alat)  =      18.7640  a.u.
     unit-cell volume          =   16360.3163 (a.u.)^3
     number of atoms/cell      =           65
     number of atomic types    =            2
     number of electrons       =      1029.00
     number of Kohn-Sham states=          618
     kinetic-energy cutoff     =      60.0000  Ry
     charge density cutoff     =     480.0000  Ry
     convergence threshold     =      1.0E-08
     mixing beta               =       0.2000
     number of iterations used =           10  local-TF  mixing
     Exchange-correlation      = PBE ( 1  4  3  4 0 0)
     nstep                     =           50

     Effective Screening Medium Method
     Boundary Conditions: Metal-Slab-Metal
     field strength                   =    -0.01 Ry/a.u.
     grid points for fit at edges     =        4

     celldm(1)=  18.764036  celldm(2)=   0.000000  celldm(3)=   0.000000
     celldm(4)=   0.000000  celldm(5)=   0.000000  celldm(6)=   0.000000

     crystal axes: (cart. coord. in units of alat)
               a(1) = (   1.000000   0.000000   0.000000 )
               a(2) = (   0.333330   0.942807   0.000000 )
               a(3) = (   0.000000   0.000000   2.626577 )

     reciprocal axes: (cart. coord. in units 2 pi/alat)
               b(1) = (  1.000000 -0.353551  0.000000 )
               b(2) = (  0.000000  1.060663  0.000000 )
               b(3) = (  0.000000  0.000000  0.380724 )

     PseudoPot. # 1 for Fe read from file:
     ../../SSSP/Fe.pbe-spn-kjpaw_psl.0.2.1.UPF
     MD5 check sum: e86618425769142926afa95317d90200
     Pseudo is Projector augmented-wave + core cor, Zval = 16.0
     Generated using "atomic" code by A. Dal Corso v.5.0.99 svn rev. 10869
     Shape of augmentation charge: PSQ
     Using radial grid of 1191 points,  6 beta functions with:
                l(1) =   0
                l(2) =   0
                l(3) =   1
                l(4) =   1
                l(5) =   2
                l(6) =   2
     Q(r) pseudized with 0 coefficients

     PseudoPot. # 2 for N  read from file:
     ../../SSSP/N.pbe-n-radius_5.UPF
     MD5 check sum: 16739722b17309cd8fe442a2ace49922
     Pseudo is Ultrasoft + core correction, Zval =  5.0
     Generated using "atomic" code by A. Dal Corso v.5.1
     Using radial grid of 1085 points,  4 beta functions with:
                l(1) =   0
                l(2) =   0
                l(3) =   1
                l(4) =   1
     Q(r) pseudized with 0 coefficients

     atomic species   valence    mass     pseudopotential
        Fe            16.00    55.84500     Fe( 1.00)
        N              5.00    14.00700     N ( 1.00)

     Starting magnetic structure
     atomic species   magnetization
        Fe           0.100
        N            0.100

     No symmetry found

   Cartesian axes

     site n.     atom                  positions (alat units)
         1           Fe  tau(   1) = (   0.1666663   0.1178509   0.0000000  )
         2           Fe  tau(   2) = (   0.0000000   0.0000000   0.2041376  )
         3           Fe  tau(   3) = (   0.4999989   0.3535526   0.0000000  )
         4           Fe  tau(   4) = (   0.3333326   0.2357017   0.2041376  )
         5           Fe  tau(   5) = (   0.1691472   0.1176094   0.4056660  )
         6           Fe  tau(   6) = (   0.3359380   0.9392018   0.6058109  )
         7           Fe  tau(   7) = (   0.4995901   0.3558703   0.4071094  )
         8           Fe  tau(   8) = (   0.3412681   0.2358492   0.6065705  )
         9           Fe  tau(   9) = (   0.2499989   0.3535526   0.0000000  )
        10           Fe  tau(  10) = (   0.4166663   0.1178509   0.0000000  )
        11           Fe  tau(  11) = (   0.0833326   0.2357017   0.2041376  )
        12           Fe  tau(  12) = (   0.2500000   0.0000000   0.2041376  )
        13           Fe  tau(  13) = (   0.2500218   0.3535847   0.4074555  )
        14           Fe  tau(  14) = (   0.4191520   0.1196486   0.4060441  )
        15           Fe  tau(  15) = (   0.0915614   0.2321511   0.6071614  )
        16           Fe  tau(  16) = (   0.2530337   0.0021777   0.6066172  )
        17           Fe  tau(  17) = (   0.6666663   0.1178509   0.0000000  )
        18           Fe  tau(  18) = (   0.5000000   0.0000000   0.2041376  )
        19           Fe  tau(  19) = (   0.9999989   0.3535526   0.0000000  )
        20           Fe  tau(  20) = (   0.8333326   0.2357017   0.2041376  )
        21           Fe  tau(  21) = (   0.6686653   0.1166981   0.4070740  )
        22           Fe  tau(  22) = (   0.5027470   0.0075037   0.6066117  )
        23           Fe  tau(  23) = (   1.0004776   0.3513212   0.4070776  )
        24           Fe  tau(  24) = (   0.8513672   0.2102859   0.6020526  )
        25           Fe  tau(  25) = (   0.7499989   0.3535526   0.0000000  )
        26           Fe  tau(  26) = (   0.9166663   0.1178509   0.0000000  )
        27           Fe  tau(  27) = (   0.5833326   0.2357017   0.2041376  )
        28           Fe  tau(  28) = (   0.7500000   0.0000000   0.2041376  )
        29           Fe  tau(  29) = (   0.7500413   0.3535585   0.4083588  )
        30           Fe  tau(  30) = (   0.9196400   0.1137006   0.4025538  )
        31           Fe  tau(  31) = (   0.5921530   0.2419357   0.6052781  )
        32           Fe  tau(  32) = (   1.0840202   0.9339265   0.6071563  )
        33           Fe  tau(  33) = (   0.3333315   0.5892543   0.0000000  )
        34           Fe  tau(  34) = (   0.1666652   0.4714034   0.2041376  )
        35           Fe  tau(  35) = (   0.6666640   0.8249560   0.0000000  )
        36           Fe  tau(  36) = (   0.4999978   0.7071052   0.2041376  )
        37           Fe  tau(  37) = (   0.3308935   0.5895421   0.4056869  )
        38           Fe  tau(  38) = (   1.1587770   0.4713705   0.6066133  )
        39           Fe  tau(  39) = (   0.6672561   0.8273892   0.4056891  )
        40           Fe  tau(  40) = (   0.4974300   0.7108097   0.6059109  )
        41           Fe  tau(  41) = (   0.4166640   0.8249560   0.0000000  )
        42           Fe  tau(  42) = (   0.5833315   0.5892543   0.0000000  )
        43           Fe  tau(  43) = (   0.2499978   0.7071052   0.2041376  )
        44           Fe  tau(  44) = (   0.4166652   0.4714034   0.2041376  )
        45           Fe  tau(  45) = (   0.4166844   0.8249818   0.4044816  )
        46           Fe  tau(  46) = (   0.5803843   0.5934793   0.4025899  )
        47           Fe  tau(  47) = (   1.2470077   0.7050318   0.6066043  )
        48           Fe  tau(  48) = (   0.4085172   0.4750834   0.6072198  )
        49           Fe  tau(  49) = (   0.8333315   0.5892543   0.0000000  )
        50           Fe  tau(  50) = (   0.6666652   0.4714034   0.2041376  )
        51           Fe  tau(  51) = (   1.1666640   0.8249560   0.0000000  )
        52           Fe  tau(  52) = (   0.9999978   0.7071052   0.2041376  )
        53           Fe  tau(  53) = (   0.8313389   0.5904534   0.4071156  )
        54           Fe  tau(  54) = (   0.6487233   0.4968744   0.6020552  )
        55           Fe  tau(  55) = (   1.1661158   0.8225743   0.4056597  )
        56           Fe  tau(  56) = (   0.9972943   0.6997385   0.6065670  )
        57           Fe  tau(  57) = (   0.9166640   0.8249560   0.0000000  )
        58           Fe  tau(  58) = (   1.0833315   0.5892543   0.0000000  )
        59           Fe  tau(  59) = (   0.7499978   0.7071052   0.2041376  )
        60           Fe  tau(  60) = (   0.9166652   0.4714034   0.2041376  )
        61           Fe  tau(  61) = (   0.9166776   0.8249875   0.4074566  )
        62           Fe  tau(  62) = (   1.0808628   0.5875460   0.4060466  )
        63           Fe  tau(  63) = (   0.7493230   0.7160881   0.6072274  )
        64           Fe  tau(  64) = (   0.9079495   0.4652294   0.6052882  )
        65           N   tau(  65) = (   0.7500494   0.3535840   0.6399018  )

     number of k points=    10  Methfessel-Paxton smearing, width (Ry)=  0.0100
                       cart. coord. in units 2pi/alat
        k(    1) = (   0.0000000   0.0000000   0.0000000), wk =   0.0625000
        k(    2) = (   0.0000000   0.2651656   0.0000000), wk =   0.1250000
        k(    3) = (   0.0000000  -0.5303313   0.0000000), wk =   0.0625000
        k(    4) = (   0.2500000  -0.0883878   0.0000000), wk =   0.1250000
        k(    5) = (   0.2500000   0.1767779   0.0000000), wk =   0.1250000
        k(    6) = (   0.2500000  -0.6187190   0.0000000), wk =   0.1250000
        k(    7) = (   0.2500000  -0.3535534   0.0000000), wk =   0.1250000
        k(    8) = (  -0.5000000   0.1767755   0.0000000), wk =   0.0625000
        k(    9) = (  -0.5000000   0.4419412   0.0000000), wk =   0.1250000
        k(   10) = (  -0.5000000  -0.3535558   0.0000000), wk =   0.0625000

     Check: negative core charge=   -0.000039

     Initial potential from superposition of free atoms

     starting charge 1028.97194, renormalised to 1029.00000

     negative rho (up, down):  2.480E-02 2.555E-03
     Starting wfcs are  836 randomized atomic wfcs
     Checking if some PAW data can be deallocated...

     Self-consistent Calculation

     iteration #  1     ecut=    60.00 Ry     beta= 0.20
     Davidson diagonalization with overlap
     ethr =  1.00E-04,  avg # of iterations = 18.6

     negative rho (up, down):  1.315E-02 3.563E-03

     total energy              =  -21087.66311906 Ry
     Harris-Foulkes estimate   =  -21094.31345486 Ry
     estimated scf accuracy    <     324.90689102 Ry

     total magnetization       =   107.80 Bohr mag/cell
     absolute magnetization    =   108.64 Bohr mag/cell

[...]

     iteration #  8     ecut=    60.00 Ry     beta= 0.20
     Davidson diagonalization with overlap
     c_bands:  2 eigenvalues not converged
     c_bands:  2 eigenvalues not converged
     ethr =  5.38E-05,  avg # of iterations = 17.1

[...]

     Magnetic moment per site:
     atom:    1    charge:   12.6165    magn:    2.3624    constr:    0.0000
     atom:    2    charge:   12.6074    magn:    2.1748    constr:    0.0000
     atom:    3    charge:   12.6160    magn:    2.3651    constr:    0.0000
[...]
     atom:   54    charge:   12.6267    magn:    1.6257    constr:    0.0000
     atom:   55    charge:   12.6097    magn:    2.1963    constr:    0.0000
     atom:   56    charge:   12.6168    magn:    2.3569    constr:    0.0000
     atom:   57    charge:   12.6165    magn:    2.3586    constr:    0.0000
     atom:   58    charge:   12.6164    magn:    2.3611    constr:    0.0000
     atom:   59    charge:   12.6060    magn:    2.2129    constr:    0.0000
     atom:   60    charge:   12.6053    magn:    2.2349    constr:    0.0000
     atom:   61    charge:   12.6063    magn:    2.2068    constr:    0.0000
     atom:   62    charge:   12.6104    magn:    2.1908    constr:    0.0000
     atom:   63    charge:   12.6195    magn:    2.3367    constr:    0.0000
     atom:   64    charge:   12.6125    magn:    2.1463    constr:    0.0000
     atom:   65    charge:    3.7341    magn:   -0.1340    constr:    0.0000

     End of self-consistent calculation

 ------ SPIN UP ------------

[...]

 ------ SPIN DOWN ----------

[...]

          k = 0.2500-0.3536 0.0000 (128397 PWs)   bands (ev):

[...]

          k =-0.5000-0.3536 0.0000 (128560 PWs)   bands (ev):

   -92.7898 -92.7895 -92.3436 -92.3435 -92.2242 -92.2223 -92.2170 -92.1248
   -92.1089 -92.1023 -92.0991 -92.0917 -92.0908 -92.0806 -92.0779 -92.0766
   -92.0708 -92.0707 -92.0674 -92.0643 -92.0620 -92.0613 -92.0599 -92.0581
   -92.0580 -92.0571 -92.0548 -92.0528 -92.0528 -92.0496 -92.0488 -92.0487
   -92.0482 -92.0415 -92.0381 -92.0348 -92.0311 -92.0289 -92.0258 -92.0257
   -92.0239 -92.0231 -92.0202 -92.0179 -92.0157 -92.0157 -92.0140 -92.0124
   -92.0107 -91.9997 -91.9986 -91.9978 -91.9961 -91.9949 -91.9945 -91.9944
   -91.9922 -91.9921 -91.9916 -91.9901 -91.9764 -91.9726 -91.9715 -91.9685
   -59.3381 -59.3299 -58.7903 -58.7808 -58.7082 -58.7013 -58.6563 -58.6510
   -58.4525 -58.4439 -58.4307 -58.4261 -58.4233 -58.4203 -58.4113 -58.3881
   -58.3878 -58.3856 -58.3782 -58.3730 -58.3681 -58.3655 -58.3588 -58.3539
   -58.3523 -58.3516 -58.3490 -58.3438 -58.3420 -58.3377 -58.3368 -58.3332
   -58.3283 -58.3204 -58.3201 -58.3172 -58.3161 -58.3112 -58.3106 -58.3102
   -58.3078 -58.3076 -58.3049 -58.3020 -58.2976 -58.2904 -58.2895 -58.2885
   -58.2879 -58.2865 -58.2808 -58.2759 -58.2744 -58.2734 -58.2717 -58.2686
   -58.2671 -58.2663 -58.2651 -58.2651 -58.2630 -58.2617 -58.2586 -58.2582
   -58.2577 -58.2566 -58.2550 -58.2510 -58.2481 -58.2473 -58.2468 -58.2438
   -58.2349 -58.2258 -58.2193 -58.2173 -58.2136 -58.2099 -58.2066 -58.2016
   -58.1978 -58.1962 -58.1951 -58.1916 -58.1754 -58.1738 -58.1728 -58.1725
   -58.1676 -58.1617 -58.1603 -58.1595 -58.1579 -58.1573 -58.1526 -58.1516
   -58.1494 -58.1493 -58.1458 -58.1457 -58.1408 -58.1405 -58.1377 -58.1351
   -58.1349 -58.1302 -58.1244 -58.1236 -58.1228 -58.1173 -58.1162 -58.1159
   -58.1154 -58.1152 -58.1134 -58.1124 -58.1119 -58.1088 -58.1084 -58.1018
   -58.1001 -58.0993 -58.0905 -58.0894 -58.0888 -58.0865 -58.0865 -58.0848
   -58.0847 -58.0821 -58.0804 -58.0748 -58.0726 -58.0705 -58.0680 -58.0665
   -58.0649 -58.0635 -58.0631 -58.0607 -58.0600 -58.0594 -58.0570 -58.0563
   -58.0554 -58.0547 -58.0537 -58.0513 -58.0507 -58.0503 -58.0491 -58.0485
   -58.0473 -58.0465 -58.0449 -58.0442 -58.0404 -58.0396 -58.0386 -58.0357
   -58.0335 -58.0326 -58.0308 -58.0297 -58.0262 -58.0251 -58.0251 -58.0242
   -58.0242 -58.0227 -58.0225 -58.0212 -58.0207 -58.0203 -58.0203 -58.0191
   -58.0189 -58.0166 -58.0120 -58.0108 -58.0095 -58.0092 -58.0090 -58.0049
   -58.0022 -58.0022 -58.0013 -57.9974 -57.9970 -57.9951 -57.9919 -57.9891
   -22.6857 -14.1031 -14.0590 -13.6009 -13.4801 -13.1414 -12.9826 -12.7317
   -12.5918 -12.2898 -12.1062 -11.9445 -11.4984 -11.4439 -11.4318 -11.3121
   -11.0499 -11.0120 -10.6705 -10.6599 -10.6398 -10.6128 -10.6055 -10.5504
   -10.5375 -10.5111 -10.4744 -10.4622 -10.4417 -10.3036 -10.0886 -10.0834
   -10.0818 -10.0748 -10.0326  -9.9805  -9.8863  -9.7381  -9.6240  -9.6220
    -9.6136  -9.5835  -9.5623  -9.5585  -9.5538  -9.5113  -9.4821  -9.4582
    -9.4237  -9.3258  -9.3248  -9.3126  -9.2965  -9.2859  -9.2690  -9.0928
    -9.0727  -9.0494  -9.0493  -9.0216  -9.0009  -8.9740  -8.8200  -8.7951
    -8.7742  -8.7658  -8.7155  -8.7099  -8.7072  -8.6381  -8.5956  -8.5723
    -8.5573  -8.5327  -8.5223  -8.5115  -8.5112  -8.4860  -8.4860  -8.4696
    -8.4539  -8.4075  -8.3883  -8.3851  -8.3797  -8.3795  -8.3707  -8.3702
    -8.3461  -8.3422  -8.3147  -8.2950  -8.2078  -8.1736  -8.1697  -8.1613
    -8.1607  -8.0827  -8.0703  -8.0439  -8.0308  -8.0240  -8.0229  -8.0080
    -7.9994  -7.9938  -7.9933  -7.9562  -7.9536  -7.9430  -7.9338  -7.9321
    -7.9242  -7.9232  -7.9089  -7.9079  -7.9005  -7.8947  -7.8903  -7.8850
    -7.8587  -7.8585  -7.8569  -7.8504  -7.8492  -7.8408  -7.8292  -7.8170
    -7.8076  -7.7878  -7.7835  -7.7821  -7.7805  -7.7731  -7.7698  -7.7618
    -7.7541  -7.7307  -7.7288  -7.7117  -7.5991  -7.5606  -7.5539  -7.5373
    -7.5281  -7.5228  -7.5144  -7.5125  -7.5042  -7.4918  -7.4791  -7.4674
    -7.4012  -7.3798  -7.3713  -7.3526  -7.3493  -7.3440  -7.3374  -7.3282
    -7.3207  -7.2821  -7.2693  -7.2627  -7.2224  -7.2018  -7.1740  -7.1714
    -7.1444  -7.1051  -7.0801  -7.0577  -7.0116  -7.0098  -6.9965  -6.9866
    -6.9738  -6.9727  -6.9503  -6.9466  -6.9301  -6.9107  -6.9009  -6.8863
    -6.8794  -6.8700  -6.8326  -6.8314  -6.6354  -6.6297  -6.6188  -6.6148
    -6.5061  -6.4867  -6.4834  -6.3686  -6.3314  -6.3238  -6.3012  -6.2306
    -6.2086  -6.1913  -6.1875  -6.1460  -6.1210  -6.1033  -6.1020  -6.0759
    -6.0569  -6.0394  -5.9838  -5.9603  -5.9542  -5.9536  -5.9405  -5.9288
    -5.8693  -5.8494  -5.8393  -5.8284  -5.8252  -5.8207  -5.7834  -5.7583
[...]
    -5.4231  -5.4175  -5.4022  -5.3627  -5.3549  -5.3514  -5.3463  -5.3330
    -5.3028  -5.3020  -5.2978  -5.2789  -5.2781  -5.2763  -5.2475  -5.2474
    -5.2330  -5.2307  -5.2251  -5.2160  -5.2092  -5.2065  -5.1949  -5.1900
    -5.1861  -5.1731  -5.1672  -5.1451  -5.1415  -5.1407  -5.1329  -5.1283
    -5.1137  -5.1135  -5.1106  -5.1074  -5.1008  -5.0984  -5.0796  -5.0742
    -5.0694  -5.0692  -5.0578  -5.0373  -5.0365  -5.0329  -5.0261  -5.0235
    -5.0195  -5.0170  -5.0078  -4.9867  -4.9818  -4.9773  -4.9769  -4.9746
    -4.9584  -4.9368  -4.9330  -4.9242  -4.9133  -4.9113  -4.9052  -4.8967
    -4.8813  -4.8764  -4.8666  -4.8486  -4.8473  -4.8352  -4.8311  -4.8281
    -4.8181  -4.8143  -4.8062  -4.8023  -4.7992  -4.7958  -4.7934  -4.7856
    -4.7795  -4.7742  -4.7567  -4.7512  -4.7505  -4.7400  -4.7354  -4.7275
    -4.7209  -4.7133  -4.6870  -4.6734  -4.6635  -4.6620  -4.6609  -4.6314
    -4.6293  -4.6177  -4.4959  -4.4630  -4.4192  -4.4178  -4.3812  -4.3487
    -4.2202  -4.2170  -4.1990  -4.1914  -4.1611  -4.1498  -4.1423  -4.1389
    -4.1140  -4.1056

     the Fermi energy is    -6.9614 ev

!    total energy              =  -21092.55821607 Ry
     Harris-Foulkes estimate   =  -21092.55821659 Ry
     estimated scf accuracy    <          4.3E-11 Ry

     The total energy is the sum of the following terms:

     one-electron contribution = -743209.38395670 Ry
     hartree contribution      =  371336.10626295 Ry
     xc contribution           =   -2233.60709158 Ry
     ewald contribution        =  357889.15880445 Ry
     Dispersion Correction     =      -1.38916706 Ry
     one-center paw contrib.   =   -4873.44664885 Ry
     smearing contrib. (-TS)   =       0.00358071 Ry

     total magnetization       =   160.86 Bohr mag/cell
     absolute magnetization    =   167.68 Bohr mag/cell

     convergence has been achieved in  13 iterations

     negative rho (up, down):  2.504E-02 1.908E-02

     Forces acting on atoms (cartesian axes, Ry/au):

     atom    1 type  1   force =     0.00008321    0.00062219    0.00874203
     atom    2 type  1   force =     0.00298289   -0.00419875   -0.01546014
     atom    3 type  1   force =    -0.00076134   -0.00057036    0.00800200
     atom    4 type  1   force =     0.00052755    0.00098421   -0.00791717
     atom    5 type  1   force =     0.00010796   -0.00002311   -0.00002682
     atom    6 type  1   force =     0.00001833   -0.00003162   -0.00004135
     atom    7 type  1   force =    -0.00005521    0.00001617    0.00000668
     atom    8 type  1   force =    -0.00002507   -0.00003448    0.00002219
     atom    9 type  1   force =     0.00001705   -0.00001981    0.00806651
     atom   10 type  1   force =    -0.00071466   -0.00052913    0.00855538
     atom   11 type  1   force =     0.00096629   -0.00046885   -0.00800494
     atom   12 type  1   force =     0.00066475    0.00053166   -0.01214424
     atom   13 type  1   force =    -0.00000233   -0.00000288   -0.00006727
     atom   14 type  1   force =    -0.00000615   -0.00000279   -0.00002187
     atom   15 type  1   force =     0.00009351    0.00004275   -0.00007464
     atom   16 type  1   force =     0.00005111    0.00003324    0.00002230
     atom   17 type  1   force =    -0.00081641   -0.00047639    0.00800855
     atom   18 type  1   force =     0.00109887    0.00019297   -0.00789360
     atom   19 type  1   force =     0.00071869    0.00060680    0.00798845
     atom   20 type  1   force =    -0.00107511    0.00155861   -0.00336154
     atom   21 type  1   force =    -0.00000385   -0.00006659    0.00000406
     atom   22 type  1   force =    -0.00003928   -0.00001663    0.00001992
     atom   23 type  1   force =     0.00005942   -0.00002185    0.00000227
     atom   24 type  1   force =    -0.00003870    0.00004688   -0.00002902
     atom   25 type  1   force =     0.00003396   -0.00003283    0.00779448
     atom   26 type  1   force =    -0.00117031    0.00165809    0.00755921
     atom   27 type  1   force =     0.00122235    0.00081053   -0.00355815
     atom   28 type  1   force =     0.00013399   -0.00105167   -0.00800772
     atom   29 type  1   force =    -0.00000174   -0.00000391    0.00005797
     atom   30 type  1   force =     0.00001494   -0.00002449    0.00006809
     atom   31 type  1   force =     0.00002459    0.00000462   -0.00000435
     atom   32 type  1   force =    -0.00007787   -0.00008252   -0.00007548
     atom   33 type  1   force =    -0.00009198   -0.00061964    0.00873163
     atom   34 type  1   force =    -0.00052947   -0.00096278   -0.00789870
     atom   35 type  1   force =     0.00060739   -0.00012020    0.00874097
     atom   36 type  1   force =    -0.00304192    0.00429334   -0.01542002
     atom   37 type  1   force =    -0.00011496    0.00001833   -0.00002545
     atom   38 type  1   force =     0.00002117    0.00002545    0.00001797
     atom   39 type  1   force =     0.00001805    0.00011200   -0.00002699
     atom   40 type  1   force =    -0.00002135    0.00001836   -0.00004797
     atom   41 type  1   force =     0.00002831   -0.00003278    0.00920980
     atom   42 type  1   force =     0.00118046   -0.00166225    0.00756135
     atom   43 type  1   force =    -0.00071767   -0.00043329   -0.01215127
     atom   44 type  1   force =    -0.00096722    0.00048222   -0.00795419
     atom   45 type  1   force =     0.00000033   -0.00000259   -0.00002132
     atom   46 type  1   force =    -0.00001720    0.00002024    0.00007636
     atom   47 type  1   force =    -0.00005360   -0.00004155    0.00002333
     atom   48 type  1   force =    -0.00010093   -0.00005137   -0.00007927
     atom   49 type  1   force =     0.00078634    0.00052483    0.00800882
     atom   50 type  1   force =     0.00115207   -0.00161069   -0.00331341
     atom   51 type  1   force =    -0.00061859    0.00013156    0.00875752
     atom   52 type  1   force =    -0.00109380   -0.00014729   -0.00792308
     atom   53 type  1   force =    -0.00000182    0.00005482    0.00000577
     atom   54 type  1   force =     0.00003621   -0.00005863   -0.00002242
     atom   55 type  1   force =    -0.00001939   -0.00011357   -0.00002526
     atom   56 type  1   force =     0.00003173    0.00000517    0.00002134
     atom   57 type  1   force =    -0.00000154   -0.00002703    0.00807649
     atom   58 type  1   force =     0.00072480    0.00048413    0.00855894
     atom   59 type  1   force =    -0.00011694    0.00108931   -0.00794936
     atom   60 type  1   force =    -0.00116181   -0.00086197   -0.00355920
     atom   61 type  1   force =    -0.00000093   -0.00000266   -0.00006512
     atom   62 type  1   force =     0.00000067    0.00000139   -0.00002087
     atom   63 type  1   force =     0.00007505    0.00007108   -0.00008038
     atom   64 type  1   force =    -0.00002356   -0.00002845   -0.00000195
     atom   65 type  2   force =     0.00000064   -0.00000556   -0.00009892

     Total force =     0.000459     Total SCF correction =     0.000030

     bfgs converged in  10 scf cycles and   9 bfgs steps
     (criteria: energy <  7.3E-07 Ry, force <  3.9E-04 Ry/Bohr)

     End of BFGS Geometry Optimization

     Final energy   =  -21092.5582160737 Ry
Begin final coordinates

ATOMIC_POSITIONS (angstrom)
Fe       1.654912953   1.170200133   0.000000000    0   0   0
Fe       0.000000000   0.000000000   2.026984232    0   0   0
Fe       4.964738858   3.510600399   0.000000000    0   0   0
Fe       3.309825906   2.340400266   2.026984232    0   0   0
Fe       1.678806994   1.167994809   4.028591221
Fe       3.335478005   9.325953666   6.014648497
Fe       4.960425076   3.533258650   4.041947248
Fe       3.388865992   2.341721327   6.022998858
Fe       2.482363858   3.510600399   0.000000000    0   0   0
Fe       4.137287953   1.170200133   0.000000000    0   0   0
Fe       0.827450906   2.340400266   2.026984232    0   0   0
Fe       2.482375000   0.000000000   2.026984232    0   0   0
Fe       2.482576459   3.510835432   4.046766472
Fe       4.161254216   1.187440189   4.031957581
Fe       0.907815888   2.304408624   6.030598651
Fe       2.511451635   0.020838500   6.022419190
Fe       6.619662953   1.170200133   0.000000000    0   0   0
Fe       4.964750000   0.000000000   2.026984232    0   0   0
Fe       9.929488858   3.510600399   0.000000000    0   0   0
Fe       8.274575906   2.340400266   2.026984232    0   0   0
Fe       6.639204257   1.158528080   4.041692278
Fe       4.991987182   0.074492558   6.023318172
Fe       9.934446910   3.488571233   4.041724074
Fe       8.454366489   2.086845468   5.975870090
Fe       7.447113858   3.510600399   0.000000000    0   0   0
Fe       9.102037953   1.170200133   0.000000000    0   0   0
Fe       5.792200906   2.340400266   2.026984232    0   0   0
Fe       7.447125000   0.000000000   2.026984232    0   0   0
Fe       7.447520085   3.510553364   4.054994486
Fe       9.131256508   1.129313623   3.995768932
Fe       5.879616657   2.402096598   6.007822270
Fe      10.764756123   9.274331162   6.030567259
Fe       3.309814764   5.851000664   0.000000000    0   0   0
Fe       1.654901811   4.680800531   2.026984232    0   0   0
Fe       6.619640670   8.191400930   0.000000000    0   0   0
Fe       4.964727717   7.021200797   2.026984232    0   0   0
Fe       3.286320144   5.853562380   4.028785332
Fe      11.505904276   4.680418709   6.023358567
Fe       6.625458183   8.214712916   4.028794871
Fe       4.939356678   7.057684658   6.015839556
Fe       4.137265670   8.191400930   0.000000000    0   0   0
Fe       5.792189764   5.851000664   0.000000000    0   0   0
Fe       2.482352717   7.021200797   2.026984232    0   0   0
Fe       4.137276811   4.680800531   2.026984232    0   0   0
Fe       4.137438634   8.191593189   4.016128332
Fe       5.763163765   5.892504461   3.996101920
Fe      12.383113371   7.001224526   6.022313626
Fe       4.057783077   4.717874056   6.031032854
Fe       8.274564764   5.851000664   0.000000000    0   0   0
Fe       6.619651811   4.680800531   2.026984232    0   0   0
Fe      11.584390670   8.191400930   0.000000000    0   0   0
Fe       9.929477717   7.021200797   2.026984232    0   0   0
Fe       8.255093563   5.862953059   4.041991867
Fe       6.440769554   4.934562032   5.975753169
Fe      11.578919002   8.168450904   4.028542905
Fe       9.902541573   6.947659196   6.022963399
Fe       9.102015670   8.191400930   0.000000000    0   0   0
Fe      10.756939764   5.851000664   0.000000000    0   0   0
Fe       7.447102717   7.021200797   2.026984232    0   0   0
Fe       9.102026811   4.680800531   2.026984232    0   0   0
Fe       9.102140527   8.191620926   4.046765087
Fe      10.733135805   5.834439536   4.031976777
Fe       7.439271346   7.109110949   6.031107632
Fe       9.015523198   4.619444667   6.007887625
N        7.447581845   3.510739905   6.342350374
End final coordinates

     Writing output data file Fe_N_paper_480c_ESM_pn25.save/

     General routines

     Parallel routines

   This run was terminated on:  16:33:33  13Jun2022

   JOB DONE.