     Program PWSCF v.6.4.1 starts on 15Jun2022 at 15: 8:15

     K-points division:     npool     =       8
     R & G space division:  proc/nbgrp/npool/nimage =      20
     Waiting for input...
     Reading input from standard input
Warning: card &CELL ignored
Warning: card / ignored

     Current dimensions of program PWSCF are:
     Max number of different atomic species (ntypx) = 10
     Max number of k-points (npk) =  40000
     Max angular momentum in pseudopotentials (lmaxx) =  3

     IMPORTANT: XC functional enforced from input :
     Exchange-correlation      = PBE ( 1  4  3  4 0 0)
     Any further DFT definition will be discarded
     Please, verify this is what you really want

               file Fe.pbe-spn-kjpaw_psl.0.2.1.UPF: wavefunction(s)  3D renormalized

     Parameters for Dispersion (Grimme-D2) Correction:
       atom      VdW radius       C_6

        Fe         2.952        374.666
        N          2.640         42.670
        H          1.892          4.857

     bravais-lattice index     =            0
     lattice parameter (alat)  =      18.7640  a.u.
     unit-cell volume          =   16360.3163 (a.u.)^3
     number of atoms/cell      =           67
     number of atomic types    =            3
     number of electrons       =      1031.00
     number of Kohn-Sham states=          619
     kinetic-energy cutoff     =      60.0000  Ry
     charge density cutoff     =     480.0000  Ry
     convergence threshold     =      1.0E-08
     mixing beta               =       0.2000
     number of iterations used =           10  local-TF  mixing
     Exchange-correlation      = PBE ( 1  4  3  4 0 0)
     nstep                     =           50

     Effective Screening Medium Method
     Boundary Conditions: Metal-Slab-Metal
     field strength                   =    -0.02 Ry/a.u.
     grid points for fit at edges     =        4

     celldm(1)=  18.764036  celldm(2)=   0.000000  celldm(3)=   0.000000
     celldm(4)=   0.000000  celldm(5)=   0.000000  celldm(6)=   0.000000

     crystal axes: (cart. coord. in units of alat)
               a(1) = (   1.000000   0.000000   0.000000 )
               a(2) = (   0.333330   0.942807   0.000000 )
               a(3) = (   0.000000   0.000000   2.626577 )

     reciprocal axes: (cart. coord. in units 2 pi/alat)
               b(1) = (  1.000000 -0.353551  0.000000 )
               b(2) = (  0.000000  1.060663  0.000000 )
               b(3) = (  0.000000  0.000000  0.380724 )

     PseudoPot. # 1 for Fe read from file:
     ../../SSSP/Fe.pbe-spn-kjpaw_psl.0.2.1.UPF
     MD5 check sum: e86618425769142926afa95317d90200
     Pseudo is Projector augmented-wave + core cor, Zval = 16.0
     Generated using "atomic" code by A. Dal Corso v.5.0.99 svn rev. 10869
     Shape of augmentation charge: PSQ
     Using radial grid of 1191 points,  6 beta functions with:
                l(1) =   0
                l(2) =   0
                l(3) =   1
                l(4) =   1
                l(5) =   2
                l(6) =   2
     Q(r) pseudized with 0 coefficients

     PseudoPot. # 2 for N  read from file:
     ../../SSSP/N.pbe-n-radius_5.UPF
     MD5 check sum: 16739722b17309cd8fe442a2ace49922
     Pseudo is Ultrasoft + core correction, Zval =  5.0
     Generated using "atomic" code by A. Dal Corso v.5.1
     Using radial grid of 1085 points,  4 beta functions with:
                l(1) =   0
                l(2) =   0
                l(3) =   1
                l(4) =   1
     Q(r) pseudized with 0 coefficients

     PseudoPot. # 3 for H  read from file:
     ../../SSSP/H.pbe-rrkjus_psl.1.0.0.UPF
     MD5 check sum: f52b6d4d1c606e5624b1dc7b2218f220
     Pseudo is Ultrasoft, Zval =  1.0
     Generated using "atomic" code by A. Dal Corso v.5.1
     Using radial grid of  929 points,  2 beta functions with:
                l(1) =   0
                l(2) =   0
     Q(r) pseudized with 0 coefficients

     atomic species   valence    mass     pseudopotential
        Fe            16.00    55.84500     Fe( 1.00)
        N              5.00    14.00700     N ( 1.00)
        H              1.00     1.00800     H ( 1.00)

     Starting magnetic structure
     atomic species   magnetization
        Fe           0.100
        N            0.100
        H            0.100

     No symmetry found

   Cartesian axes

     site n.     atom                  positions (alat units)
         1           Fe  tau(   1) = (   0.1666663   0.1178509   0.0000000  )
         2           Fe  tau(   2) = (   0.0000000   0.0000000   0.2041376  )
         3           Fe  tau(   3) = (   0.4999989   0.3535526   0.0000000  )
         4           Fe  tau(   4) = (   0.3333326   0.2357017   0.2041376  )
         5           Fe  tau(   5) = (   0.1688326   0.1178129   0.4052745  )
         6           Fe  tau(   6) = (   0.3344312   0.9422396   0.6044197  )
         7           Fe  tau(   7) = (   0.5011709   0.3549805   0.4071303  )
         8           Fe  tau(   8) = (   0.3393568   0.2350359   0.6052226  )
         9           Fe  tau(   9) = (   0.2499989   0.3535526   0.0000000  )
        10           Fe  tau(  10) = (   0.4166663   0.1178509   0.0000000  )
        11           Fe  tau(  11) = (   0.0833326   0.2357017   0.2041376  )
        12           Fe  tau(  12) = (   0.2500000   0.0000000   0.2041376  )
        13           Fe  tau(  13) = (   0.2500580   0.3534877   0.4069730  )
        14           Fe  tau(  14) = (   0.4191124   0.1196271   0.4062056  )
        15           Fe  tau(  15) = (   0.0869689   0.2337948   0.6041899  )
        16           Fe  tau(  16) = (   0.2513805   0.0010434   0.6053244  )
        17           Fe  tau(  17) = (   0.6666663   0.1178509   0.0000000  )
        18           Fe  tau(  18) = (   0.5000000   0.0000000   0.2041376  )
        19           Fe  tau(  19) = (   0.9999989   0.3535526   0.0000000  )
        20           Fe  tau(  20) = (   0.8333326   0.2357017   0.2041376  )
        21           Fe  tau(  21) = (   0.6683641   0.1185162   0.4071021  )
        22           Fe  tau(  22) = (   0.5013290   0.0059643   0.6052473  )
        23           Fe  tau(  23) = (   0.9987814   0.3520415   0.4068958  )
        24           Fe  tau(  24) = (   0.8423826   0.2229311   0.6027454  )
        25           Fe  tau(  25) = (   0.7499989   0.3535526   0.0000000  )
        26           Fe  tau(  26) = (   0.9166663   0.1178509   0.0000000  )
        27           Fe  tau(  27) = (   0.5833326   0.2357017   0.2041376  )
        28           Fe  tau(  28) = (   0.7500000   0.0000000   0.2041376  )
        29           Fe  tau(  29) = (   0.7499533   0.3535195   0.4029363  )
        30           Fe  tau(  30) = (   0.9185318   0.1150330   0.4041368  )
        31           Fe  tau(  31) = (   0.5929562   0.2425249   0.6092769  )
        32           Fe  tau(  32) = (   1.0846732   0.9389673   0.6042056  )
        33           Fe  tau(  33) = (   0.3333315   0.5892543   0.0000000  )
        34           Fe  tau(  34) = (   0.1666652   0.4714034   0.2041376  )
        35           Fe  tau(  35) = (   0.6666640   0.8249560   0.0000000  )
        36           Fe  tau(  36) = (   0.4999978   0.7071052   0.2041376  )
        37           Fe  tau(  37) = (   0.3312474   0.5893196   0.4056041  )
        38           Fe  tau(  38) = (   1.1607619   0.4712958   0.6048464  )
        39           Fe  tau(  39) = (   0.6673404   0.8270470   0.4052951  )
        40           Fe  tau(  40) = (   0.4998136   0.7084095   0.6043768  )
        41           Fe  tau(  41) = (   0.4166640   0.8249560   0.0000000  )
        42           Fe  tau(  42) = (   0.5833315   0.5892543   0.0000000  )
        43           Fe  tau(  43) = (   1.2499978   0.7071052   0.2041376  )
        44           Fe  tau(  44) = (   0.4166652   0.4714034   0.2041376  )
        45           Fe  tau(  45) = (   0.4165509   0.8249174   0.4043934  )
        46           Fe  tau(  46) = (   0.5812933   0.5919710   0.4041428  )
        47           Fe  tau(  47) = (   1.2474419   0.7053339   0.6055846  )
        48           Fe  tau(  48) = (   0.4134635   0.4740362   0.6042760  )
        49           Fe  tau(  49) = (   0.8333315   0.5892543   0.0000000  )
        50           Fe  tau(  50) = (   0.6666652   0.4714034   0.2041376  )
        51           Fe  tau(  51) = (   1.1666640   0.8249560   0.0000000  )
        52           Fe  tau(  52) = (   0.9999978   0.7071052   0.2041376  )
        53           Fe  tau(  53) = (   0.8314826   0.5886479   0.4069229  )
        54           Fe  tau(  54) = (   0.6576307   0.4842356   0.6027414  )
        55           Fe  tau(  55) = (   1.1660132   0.8229918   0.4055945  )
        56           Fe  tau(  56) = (   0.9979139   0.7015941   0.6048479  )
        57           Fe  tau(  57) = (   0.9166640   0.8249560   0.0000000  )
        58           Fe  tau(  58) = (   1.0833315   0.5892543   0.0000000  )
        59           Fe  tau(  59) = (   0.7499978   0.7071052   0.2041376  )
        60           Fe  tau(  60) = (   0.9166652   0.4714034   0.2041376  )
        61           Fe  tau(  61) = (   0.9166070   0.8250817   0.4069852  )
        62           Fe  tau(  62) = (   1.0808238   0.5875173   0.4059910  )
        63           Fe  tau(  63) = (   0.7493857   0.7112379   0.6042543  )
        64           Fe  tau(  64) = (   0.9072822   0.4647726   0.6091991  )
        65           N   tau(  65) = (   0.7500993   0.3536537   0.7047098  )
        66           H   tau(  66) = (   0.7502543   0.3537852   0.8083741  )
        67           H   tau(  67) = (   0.4593526   0.8551840   0.6988751  )

     number of k points=    10  Methfessel-Paxton smearing, width (Ry)=  0.0100
                       cart. coord. in units 2pi/alat
        k(    1) = (   0.0000000   0.0000000   0.0000000), wk =   0.0625000
        k(    2) = (   0.0000000   0.2651656   0.0000000), wk =   0.1250000
        k(    3) = (   0.0000000  -0.5303313   0.0000000), wk =   0.0625000
        k(    4) = (   0.2500000  -0.0883878   0.0000000), wk =   0.1250000
        k(    5) = (   0.2500000   0.1767779   0.0000000), wk =   0.1250000
        k(    6) = (   0.2500000  -0.6187190   0.0000000), wk =   0.1250000
        k(    7) = (   0.2500000  -0.3535534   0.0000000), wk =   0.1250000
        k(    8) = (  -0.5000000   0.1767755   0.0000000), wk =   0.0625000
        k(    9) = (  -0.5000000   0.4419412   0.0000000), wk =   0.1250000
        k(   10) = (  -0.5000000  -0.3535558   0.0000000), wk =   0.0625000

     Check: negative core charge=   -0.000039

     Initial potential from superposition of free atoms

     starting charge 1030.97192, renormalised to 1031.00000

     negative rho (up, down):  2.445E-02 2.515E-03
     Starting wfcs are  838 randomized atomic wfcs
     Checking if some PAW data can be deallocated...

     Self-consistent Calculation

     iteration #  1     ecut=    60.00 Ry     beta= 0.20
     Davidson diagonalization with overlap
     c_bands:  1 eigenvalues not converged
     ethr =  1.00E-04,  avg # of iterations = 18.5

     negative rho (up, down):  1.502E-02 3.104E-03

     total energy              =  -21079.78862264 Ry
[...]
     atom:   59    charge:   12.5932    magn:    2.2105    constr:    0.0000
     atom:   60    charge:   12.5921    magn:    2.2028    constr:    0.0000
     atom:   61    charge:   12.5924    magn:    2.1986    constr:    0.0000
     atom:   62    charge:   12.5958    magn:    2.1468    constr:    0.0000
     atom:   63    charge:   12.6079    magn:    2.3449    constr:    0.0000
     atom:   64    charge:   12.5982    magn:    2.2517    constr:    0.0000
     atom:   65    charge:    1.3323    magn:   -0.0354    constr:    0.0000
     atom:   66    charge:    0.4389    magn:    0.0077    constr:    0.0000
     atom:   67    charge:    0.3558    magn:   -0.0209    constr:    0.0000

     End of self-consistent calculation

 ------ SPIN UP ------------

[...]

 ------ SPIN DOWN ----------

[...]

          k = 0.2500-0.3536 0.0000 (128397 PWs)   bands (ev):

[...]

          k =-0.5000-0.3536 0.0000 (128560 PWs)   bands (ev):

   -97.7721 -97.7704 -97.4194 -97.4171 -97.3658 -97.3603 -97.3435 -97.3401
   -97.3165 -97.3107 -97.2970 -97.2924 -97.2862 -97.2857 -97.2847 -97.2803
   -97.2759 -97.2732 -97.2730 -97.2671 -97.2646 -97.2635 -97.2613 -97.2612
   -97.2535 -97.2527 -97.2523 -97.2497 -97.2495 -97.2475 -97.2469 -97.2455
   -97.2437 -97.2433 -97.2429 -97.2286 -97.2250 -97.2239 -97.2234 -97.2220
   -97.2202 -97.2108 -97.2098 -97.2089 -97.2088 -97.2082 -97.2071 -97.2062
   -97.2032 -97.1952 -97.1907 -97.1869 -97.1866 -97.1864 -97.1861 -97.1851
   -97.1851 -97.1847 -97.1827 -97.1825 -97.1641 -97.1640 -97.1637 -97.1612
   -64.2106 -64.1946 -63.8667 -63.8613 -63.7078 -63.6896 -63.6504 -63.6485
   -63.6362 -63.6099 -63.5822 -63.5756 -63.5754 -63.5680 -63.5656 -63.5649
   -63.5645 -63.5621 -63.5579 -63.5551 -63.5520 -63.5507 -63.5480 -63.5459
   -63.5429 -63.5413 -63.5385 -63.5345 -63.5337 -63.5297 -63.5253 -63.5240
   -63.5227 -63.5218 -63.5176 -63.5160 -63.5103 -63.5100 -63.5068 -63.5047
   -63.5015 -63.5012 -63.4989 -63.4940 -63.4929 -63.4863 -63.4855 -63.4835
   -63.4772 -63.4723 -63.4703 -63.4663 -63.4650 -63.4647 -63.4638 -63.4606
   -63.4603 -63.4593 -63.4590 -63.4564 -63.4537 -63.4534 -63.4515 -63.4511
   -63.4493 -63.4474 -63.4429 -63.4385 -63.4362 -63.4331 -63.4285 -63.4258
   -63.4208 -63.4143 -63.4112 -63.4082 -63.4012 -63.3992 -63.3935 -63.3913
   -63.3905 -63.3888 -63.3816 -63.3798 -63.3765 -63.3691 -63.3677 -63.3660
   -63.3618 -63.3605 -63.3596 -63.3569 -63.3569 -63.3513 -63.3493 -63.3485
   -63.3481 -63.3467 -63.3412 -63.3410 -63.3395 -63.3376 -63.3314 -63.3304
   -63.3254 -63.3240 -63.3232 -63.3206 -63.3136 -63.3129 -63.3113 -63.3102
   -63.3085 -63.3078 -63.3051 -63.3043 -63.3021 -63.3020 -63.3007 -63.2988
   -63.2955 -63.2944 -63.2925 -63.2897 -63.2841 -63.2828 -63.2827 -63.2819
   -63.2796 -63.2774 -63.2754 -63.2717 -63.2703 -63.2695 -63.2671 -63.2643
   -63.2630 -63.2617 -63.2604 -63.2592 -63.2577 -63.2552 -63.2538 -63.2529
   -63.2513 -63.2503 -63.2483 -63.2470 -63.2464 -63.2463 -63.2452 -63.2447
   -63.2430 -63.2400 -63.2363 -63.2358 -63.2327 -63.2282 -63.2281 -63.2272
   -63.2259 -63.2234 -63.2215 -63.2212 -63.2202 -63.2197 -63.2193 -63.2183
   -63.2182 -63.2182 -63.2165 -63.2157 -63.2147 -63.2141 -63.2111 -63.2106
   -63.2088 -63.2059 -63.2053 -63.2049 -63.2044 -63.1993 -63.1991 -63.1982
   -63.1971 -63.1947 -63.1943 -63.1936 -63.1900 -63.1890 -63.1868 -63.1856
   -28.2558 -19.7828 -19.2635 -19.2211 -18.7162 -18.6965 -18.2875 -18.0050
   -17.5706 -17.4935 -17.1501 -17.0610 -17.0075 -16.6685 -16.6225 -16.5869
   -16.5408 -16.2027 -16.0059 -15.8339 -15.8171 -15.8112 -15.7884 -15.7789
   -15.7401 -15.7050 -15.6822 -15.6805 -15.6397 -15.6354 -15.4181 -15.2862
   -15.2611 -15.2531 -15.2505 -15.2097 -15.1570 -15.0642 -14.9624 -14.8032
   -14.7828 -14.7810 -14.7495 -14.7465 -14.7161 -14.6946 -14.6541 -14.6444
   -14.6383 -14.5791 -14.5397 -14.5031 -14.4962 -14.4767 -14.4507 -14.4217
   -14.3855 -14.2365 -14.2300 -14.2166 -14.2047 -14.1928 -14.1533 -13.9859
   -13.9566 -13.9306 -13.9147 -13.8988 -13.8871 -13.8065 -13.7846 -13.7648
   -13.7313 -13.7132 -13.6973 -13.6845 -13.6825 -13.6698 -13.6590 -13.6570
   -13.6396 -13.6315 -13.6223 -13.5831 -13.5788 -13.5736 -13.5667 -13.5546
   -13.5493 -13.5332 -13.5185 -13.4735 -13.4506 -13.4332 -13.3569 -13.3401
   -13.3327 -13.2779 -13.2307 -13.2167 -13.2094 -13.2090 -13.2040 -13.1915
   -13.1832 -13.1793 -13.1654 -13.1644 -13.1426 -13.1404 -13.1333 -13.1297
   -13.1185 -13.1069 -13.1054 -13.0959 -13.0914 -13.0857 -13.0790 -13.0713
   -13.0676 -13.0634 -13.0594 -13.0478 -13.0402 -13.0335 -13.0311 -13.0198
   -13.0027 -12.9844 -12.9814 -12.9774 -12.9763 -12.9630 -12.9572 -12.9502
   -12.9462 -12.9443 -12.9206 -12.9143 -12.9140 -12.8610 -12.8397 -12.7941
   -12.7465 -12.7197 -12.7066 -12.6926 -12.6890 -12.6856 -12.6758 -12.6510
   -12.6419 -12.6296 -12.5784 -12.5578 -12.5394 -12.5262 -12.5150 -12.4955
   -12.4850 -12.4820 -12.4726 -12.4619 -12.4420 -12.4357 -12.4164 -12.3910
   -12.2997 -12.2748 -12.2449 -12.2350 -12.2021 -12.2020 -12.1858 -12.1822
   -12.1695 -12.1624 -12.1443 -12.1207 -12.0993 -12.0896 -12.0729 -12.0669
   -12.0652 -12.0403 -12.0378 -12.0175 -12.0044 -11.9095 -11.9077 -11.8221
   -11.7787 -11.7740 -11.7550 -11.6751 -11.6737 -11.6233 -11.5095 -11.4571
   -11.4152 -11.3985 -11.3792 -11.3391 -11.3383 -11.3340 -11.3170 -11.3067
   -11.2802 -11.2704 -11.2702 -11.2341 -11.2232 -11.2214 -11.2158 -11.1754
   -11.1375 -11.1112 -11.1051 -11.0976 -11.0923 -11.0791 -11.0526 -11.0384
[...]
   -10.6953 -10.6739 -10.6201 -10.6043 -10.5964 -10.5907 -10.5518 -10.5434
   -10.5170 -10.5025 -10.4910 -10.4775 -10.4762 -10.4734 -10.4686 -10.4600
   -10.4481 -10.4398 -10.4233 -10.4194 -10.4132 -10.4089 -10.4028 -10.3977
   -10.3899 -10.3870 -10.3789 -10.3664 -10.3542 -10.3537 -10.3497 -10.3376
   -10.3249 -10.3196 -10.3117 -10.3061 -10.3047 -10.3023 -10.2929 -10.2890
   -10.2875 -10.2762 -10.2656 -10.2642 -10.2494 -10.2385 -10.2309 -10.2277
   -10.2272 -10.2165 -10.2065 -10.2060 -10.1969 -10.1766 -10.1750 -10.1654
   -10.1352 -10.1189 -10.1145 -10.1044 -10.1025 -10.0929 -10.0890 -10.0754
   -10.0700 -10.0693 -10.0502 -10.0405 -10.0393 -10.0328 -10.0307 -10.0242
   -10.0199 -10.0143 -10.0127 -10.0069 -10.0037 -10.0005  -9.9973  -9.9778
    -9.9714  -9.9691  -9.9650  -9.9603  -9.9515  -9.9471  -9.9352  -9.9349
    -9.9336  -9.9262  -9.9176  -9.9019  -9.8696  -9.8548  -9.8484  -9.8346
    -9.8333  -9.8098  -9.7490  -9.7330  -9.6245  -9.6229  -9.6165  -9.5922
    -9.5356  -9.5287  -9.4651  -9.4096  -9.3988  -9.3916  -9.3803  -9.3397
    -9.3246  -9.3145  -9.3124

     the Fermi energy is   -12.1541 ev

!    total energy              =  -21095.16175876 Ry
     Harris-Foulkes estimate   =  -21095.16175923 Ry
     estimated scf accuracy    <          3.4E-11 Ry

     The total energy is the sum of the following terms:

     one-electron contribution = -744337.28840622 Ry
     hartree contribution      =  371703.48629686 Ry
     xc contribution           =   -2234.85223612 Ry
     ewald contribution        =  358648.32841464 Ry
     Dispersion Correction     =      -1.39785884 Ry
     one-center paw contrib.   =   -4873.44006389 Ry
     smearing contrib. (-TS)   =       0.00209481 Ry

     total magnetization       =   160.63 Bohr mag/cell
     absolute magnetization    =   168.56 Bohr mag/cell

     convergence has been achieved in  39 iterations

     negative rho (up, down):  1.126E-02 1.224E-01

     Forces acting on atoms (cartesian axes, Ry/au):

     atom    1 type  1   force =     0.00064421   -0.00034780    0.00873935
     atom    2 type  1   force =     0.00148478   -0.00230804   -0.01294239
     atom    3 type  1   force =    -0.00063130   -0.00043244    0.00877010
     atom    4 type  1   force =     0.00078559    0.00079282   -0.00626139
     atom    5 type  1   force =     0.00000761   -0.00002003    0.00006795
     atom    6 type  1   force =     0.00002268   -0.00004303    0.00005513
     atom    7 type  1   force =     0.00000822    0.00001461    0.00000671
     atom    8 type  1   force =     0.00001781    0.00003088   -0.00004460
     atom    9 type  1   force =    -0.00000348   -0.00002191    0.00925989
     atom   10 type  1   force =    -0.00012905   -0.00010272    0.00837848
     atom   11 type  1   force =    -0.00044985    0.00167486   -0.00582742
     atom   12 type  1   force =     0.00084585    0.00070526   -0.01022535
     atom   13 type  1   force =    -0.00001545   -0.00001001    0.00008484
     atom   14 type  1   force =     0.00001098    0.00000217    0.00002507
     atom   15 type  1   force =     0.00001995   -0.00004291   -0.00004106
     atom   16 type  1   force =    -0.00000651   -0.00000999    0.00006037
     atom   17 type  1   force =    -0.00058862   -0.00041647    0.00879438
     atom   18 type  1   force =     0.00105411    0.00052104   -0.00630309
     atom   19 type  1   force =     0.00056203    0.00046738    0.00892855
     atom   20 type  1   force =     0.00036695   -0.00076198   -0.01039200
     atom   21 type  1   force =     0.00001915    0.00000298    0.00001426
     atom   22 type  1   force =     0.00004211   -0.00000212   -0.00003540
     atom   23 type  1   force =    -0.00002207   -0.00000938    0.00001155
     atom   24 type  1   force =    -0.00007519    0.00009920    0.00010230
     atom   25 type  1   force =    -0.00002129   -0.00001157    0.00701284
     atom   26 type  1   force =    -0.00059498    0.00073729    0.01018707
     atom   27 type  1   force =    -0.00001705   -0.00008229   -0.00486734
     atom   28 type  1   force =    -0.00119022    0.00081280   -0.00496001
     atom   29 type  1   force =     0.00000286   -0.00000043   -0.00001758
     atom   30 type  1   force =     0.00003494   -0.00003759   -0.00003121
     atom   31 type  1   force =     0.00005503    0.00002906   -0.00000108
     atom   32 type  1   force =     0.00003272   -0.00004169    0.00000395
     atom   33 type  1   force =    -0.00040619    0.00024958    0.00850829
     atom   34 type  1   force =    -0.00060538   -0.00070056   -0.00639957
     atom   35 type  1   force =    -0.00012130    0.00070111    0.00875784
     atom   36 type  1   force =    -0.00177652    0.00229259   -0.01285801
     atom   37 type  1   force =     0.00001429   -0.00000626    0.00004802
     atom   38 type  1   force =    -0.00002153   -0.00003050   -0.00003763
     atom   39 type  1   force =    -0.00001310    0.00000845    0.00006839
     atom   40 type  1   force =    -0.00004132    0.00003923    0.00006762
     atom   41 type  1   force =     0.00009867    0.00003066    0.00810646
     atom   42 type  1   force =     0.00052371   -0.00080704    0.01029858
     atom   43 type  1   force =    -0.00119174   -0.00072525   -0.00936982
     atom   44 type  1   force =     0.00034640   -0.00139914   -0.00492804
     atom   45 type  1   force =    -0.00000378   -0.00000487    0.00010294
     atom   46 type  1   force =    -0.00002836    0.00004721   -0.00003014
     atom   47 type  1   force =     0.00002521    0.00002177   -0.00011408
     atom   48 type  1   force =    -0.00002097    0.00004241   -0.00001965
     atom   49 type  1   force =     0.00064348    0.00037908    0.00895050
     atom   50 type  1   force =    -0.00050774    0.00044568   -0.01040731
     atom   51 type  1   force =     0.00013466   -0.00049183    0.00852291
     atom   52 type  1   force =    -0.00084302   -0.00031644   -0.00639509
     atom   53 type  1   force =    -0.00002142   -0.00001483    0.00000591
     atom   54 type  1   force =     0.00006876   -0.00011062    0.00009792
     atom   55 type  1   force =    -0.00000105    0.00001725    0.00004639
     atom   56 type  1   force =    -0.00004087   -0.00001112   -0.00003989
     atom   57 type  1   force =    -0.00004550   -0.00000654    0.00928776
     atom   58 type  1   force =     0.00001673    0.00003215    0.00862157
     atom   59 type  1   force =     0.00143801   -0.00098323   -0.00580923
     atom   60 type  1   force =     0.00029094    0.00015840   -0.00464310
     atom   61 type  1   force =    -0.00001467   -0.00000373    0.00008688
     atom   62 type  1   force =    -0.00000625   -0.00000188    0.00004599
     atom   63 type  1   force =    -0.00004196    0.00002368   -0.00005095
     atom   64 type  1   force =    -0.00005494   -0.00003661    0.00001540
     atom   65 type  2   force =    -0.00000182   -0.00000436    0.00015262
     atom   66 type  3   force =    -0.00001956   -0.00000968   -0.00020815
     atom   67 type  3   force =    -0.00004438   -0.00001269    0.00014956

     Total force =     0.000514     Total SCF correction =     0.000022

     bfgs converged in  18 scf cycles and  17 bfgs steps
     (criteria: energy <  7.3E-07 Ry, force <  3.9E-04 Ry/Bohr)

     End of BFGS Geometry Optimization

     Final energy   =  -21095.1617587573 Ry
Begin final coordinates

ATOMIC_POSITIONS (angstrom)
Fe       1.654912953   1.170200133   0.000000000    0   0   0
Fe       0.000000000   0.000000000   2.026984232    0   0   0
Fe       4.964738858   3.510600399   0.000000000    0   0   0
Fe       3.309825906   2.340400266   2.026984232    0   0   0
Fe       1.675024650   1.171273832   4.030449097
Fe       3.319629610   9.357556096   6.010984014
Fe       4.975764887   3.524225039   4.049877628
Fe       3.368728231   2.330020653   6.030218398
Fe       2.482363858   3.510600399   0.000000000    0   0   0
Fe       4.137287953   1.170200133   0.000000000    0   0   0
Fe       0.827450906   2.340400266   2.026984232    0   0   0
Fe       2.482375000   0.000000000   2.026984232    0   0   0
Fe       2.483131444   3.510201843   4.052287427
Fe       4.161063188   1.187386213   4.042202127
Fe       0.858483289   2.321049236   6.019620767
Fe       2.494328872   0.008692662   6.018347083
Fe       6.619662953   1.170200133   0.000000000    0   0   0
Fe       4.964750000   0.000000000   2.026984232    0   0   0
Fe       9.929488858   3.510600399   0.000000000    0   0   0
Fe       8.274575906   2.340400266   2.026984232    0   0   0
Fe       6.636087439   1.176196794   4.049891168
Fe       4.974474364   0.059450868   6.030208391
Fe       9.918556175   3.495445481   4.048321638
Fe       8.360927713   2.219069144   5.993118322
Fe       7.447113858   3.510600399   0.000000000    0   0   0
Fe       9.102037953   1.170200133   0.000000000    0   0   0
Fe       5.792200906   2.340400266   2.026984232    0   0   0
Fe       7.447125000   0.000000000   2.026984232    0   0   0
Fe       7.446793682   3.510307430   4.004299896
Fe       9.119996576   1.142836930   4.017359603
Fe       5.888138700   2.408526416   6.063677249
Fe      10.770532347   9.329133770   6.016753083
Fe       3.309814764   5.851000664   0.000000000    0   0   0
Fe       1.654901811   4.680800531   2.026984232    0   0   0
Fe       6.619640670   8.191400930   0.000000000    0   0   0
Fe       4.964727717   7.021200797   2.026984232    0   0   0
Fe       3.289468741   5.851638606   4.036007770
Fe      11.525972676   4.682453710   6.026218213
Fe       6.627239850   8.210267879   4.030256629
Fe       4.964152642   7.032012968   6.010094581
Fe       4.137265670   8.191400930   0.000000000    0   0   0
Fe       5.792189764   5.851000664   0.000000000    0   0   0
Fe      12.411852717   7.021200797   2.026984232    0   0   0
Fe       4.137276811   4.680800531   2.026984232    0   0   0
Fe       4.136128298   8.190950270   4.019185466
Fe       5.772482830   5.876971314   4.017195279
Fe      12.389247390   7.005413980   6.033030035
Fe       4.111202468   4.705027209   6.016720343
Fe       8.274564764   5.851000664   0.000000000    0   0   0
Fe       6.619651811   4.680800531   2.026984232    0   0   0
Fe      11.584390670   8.191400930   0.000000000    0   0   0
Fe       9.929477717   7.021200797   2.026984232    0   0   0
Fe       8.256747659   5.845837076   4.048434681
Fe       6.533953743   4.803117062   5.993225407
Fe      11.578062395   8.172274323   4.036050013
Fe       9.911438163   6.965735682   6.025664598
Fe       9.102015670   8.191400930   0.000000000    0   0   0
Fe      10.756939764   5.851000664   0.000000000    0   0   0
Fe       7.447102717   7.021200797   2.026984232    0   0   0
Fe       9.102026811   4.680800531   2.026984232    0   0   0
Fe       9.101682817   8.192506764   4.052174166
Fe      10.732624527   5.833925722   4.040455148
Fe       7.438906529   7.057437129   6.019662312
Fe       9.008411246   4.614543733   6.062017651
N        7.447170565   3.510835495   7.010450393
H        7.448881710   3.511861882   8.044445457
H        4.558831742   8.489042047   6.940833121
End final coordinates

     Writing output data file Fe_NH_H_paper_480c_ESM_pn5.save/

     General routines

     Parallel routines

   This run was terminated on:   4:40:47  18Jun2022

   JOB DONE.