     Program PWSCF v.6.4.1 starts on 12Jun2022 at 21: 2:54

     K-points division:     npool     =       8
     R & G space division:  proc/nbgrp/npool/nimage =      20
     Waiting for input...
     Reading input from standard input
Warning: card &CELL ignored
Warning: card / ignored

     Current dimensions of program PWSCF are:
     Max number of different atomic species (ntypx) = 10
     Max number of k-points (npk) =  40000
     Max angular momentum in pseudopotentials (lmaxx) =  3

     IMPORTANT: XC functional enforced from input :
     Exchange-correlation      = PBE ( 1  4  3  4 0 0)
     Any further DFT definition will be discarded
     Please, verify this is what you really want

               file Fe.pbe-spn-kjpaw_psl.0.2.1.UPF: wavefunction(s)  3D renormalized

     Parameters for Dispersion (Grimme-D2) Correction:
       atom      VdW radius       C_6

        Fe         2.952        374.666
        N          2.640         42.670
        H          1.892          4.857

     bravais-lattice index     =            0
     lattice parameter (alat)  =      18.7640  a.u.
     unit-cell volume          =   16360.3163 (a.u.)^3
     number of atoms/cell      =           68
     number of atomic types    =            3
     number of electrons       =      1032.00
     number of Kohn-Sham states=          619
     kinetic-energy cutoff     =      60.0000  Ry
     charge density cutoff     =     480.0000  Ry
     convergence threshold     =      1.0E-08
     mixing beta               =       0.2000
     number of iterations used =           10  local-TF  mixing
     Exchange-correlation      = PBE ( 1  4  3  4 0 0)
     nstep                     =           50

     Effective Screening Medium Method
     Boundary Conditions: Metal-Slab-Metal
     field strength                   =    -0.01 Ry/a.u.
     grid points for fit at edges     =        4

     celldm(1)=  18.764036  celldm(2)=   0.000000  celldm(3)=   0.000000
     celldm(4)=   0.000000  celldm(5)=   0.000000  celldm(6)=   0.000000

     crystal axes: (cart. coord. in units of alat)
               a(1) = (   1.000000   0.000000   0.000000 )
               a(2) = (   0.333330   0.942807   0.000000 )
               a(3) = (   0.000000   0.000000   2.626577 )

     reciprocal axes: (cart. coord. in units 2 pi/alat)
               b(1) = (  1.000000 -0.353551  0.000000 )
               b(2) = (  0.000000  1.060663  0.000000 )
               b(3) = (  0.000000  0.000000  0.380724 )

     PseudoPot. # 1 for Fe read from file:
     ../../SSSP/Fe.pbe-spn-kjpaw_psl.0.2.1.UPF
     MD5 check sum: e86618425769142926afa95317d90200
     Pseudo is Projector augmented-wave + core cor, Zval = 16.0
     Generated using "atomic" code by A. Dal Corso v.5.0.99 svn rev. 10869
     Shape of augmentation charge: PSQ
     Using radial grid of 1191 points,  6 beta functions with:
                l(1) =   0
                l(2) =   0
                l(3) =   1
                l(4) =   1
                l(5) =   2
                l(6) =   2
     Q(r) pseudized with 0 coefficients

     PseudoPot. # 2 for N  read from file:
     ../../SSSP/N.pbe-n-radius_5.UPF
     MD5 check sum: 16739722b17309cd8fe442a2ace49922
     Pseudo is Ultrasoft + core correction, Zval =  5.0
     Generated using "atomic" code by A. Dal Corso v.5.1
     Using radial grid of 1085 points,  4 beta functions with:
                l(1) =   0
                l(2) =   0
                l(3) =   1
                l(4) =   1
     Q(r) pseudized with 0 coefficients

     PseudoPot. # 3 for H  read from file:
     ../../SSSP/H.pbe-rrkjus_psl.1.0.0.UPF
     MD5 check sum: f52b6d4d1c606e5624b1dc7b2218f220
     Pseudo is Ultrasoft, Zval =  1.0
     Generated using "atomic" code by A. Dal Corso v.5.1
     Using radial grid of  929 points,  2 beta functions with:
                l(1) =   0
                l(2) =   0
     Q(r) pseudized with 0 coefficients

     atomic species   valence    mass     pseudopotential
        Fe            16.00    55.84500     Fe( 1.00)
        N              5.00    14.00700     N ( 1.00)
        H              1.00     1.00800     H ( 1.00)

     Starting magnetic structure
     atomic species   magnetization
        Fe           0.100
        N            0.100
        H            0.100

     No symmetry found

   Cartesian axes

     site n.     atom                  positions (alat units)
         1           Fe  tau(   1) = (   0.1666663   0.1178509   0.0000000  )
         2           Fe  tau(   2) = (   0.0000000   0.0000000   0.2041376  )
         3           Fe  tau(   3) = (   0.4999989   0.3535526   0.0000000  )
         4           Fe  tau(   4) = (   0.3333326   0.2357017   0.2041376  )
         5           Fe  tau(   5) = (   0.1662338   0.1176619   0.4050998  )
         6           Fe  tau(   6) = (   0.3331264   0.9440494   0.6055998  )
         7           Fe  tau(   7) = (   0.4997176   0.3541907   0.4040971  )
         8           Fe  tau(   8) = (   0.3331932   0.2347853   0.6042847  )
         9           Fe  tau(   9) = (   0.2499989   0.3535526   0.0000000  )
        10           Fe  tau(  10) = (   0.4166663   0.1178509   0.0000000  )
        11           Fe  tau(  11) = (   0.0833326   0.2357017   0.2041376  )
        12           Fe  tau(  12) = (   0.2500000   0.0000000   0.2041376  )
        13           Fe  tau(  13) = (   0.2500298   0.3534599   0.4056094  )
        14           Fe  tau(  14) = (   0.4160610   0.1174334   0.4047411  )
        15           Fe  tau(  15) = (   0.0824598   0.2362012   0.6033153  )
        16           Fe  tau(  16) = (   0.2499546  -0.0000122   0.6047152  )
        17           Fe  tau(  17) = (   0.6666663   0.1178509   0.0000000  )
        18           Fe  tau(  18) = (   0.5000000   0.0000000   0.2041376  )
        19           Fe  tau(  19) = (   0.9999989   0.3535526   0.0000000  )
        20           Fe  tau(  20) = (   0.8333326   0.2357017   0.2041376  )
        21           Fe  tau(  21) = (   0.6671698   0.1173708   0.4040990  )
        22           Fe  tau(  22) = (   0.4990826   0.0001783   0.6042334  )
        23           Fe  tau(  23) = (   1.0002535   0.3528286   0.4039350  )
        24           Fe  tau(  24) = (   0.8343058   0.2343203   0.6131606  )
        25           Fe  tau(  25) = (   0.7499989   0.3535526   0.0000000  )
        26           Fe  tau(  26) = (   0.9166663   0.1178509   0.0000000  )
        27           Fe  tau(  27) = (   0.5833326   0.2357017   0.2041376  )
        28           Fe  tau(  28) = (   0.7500000   0.0000000   0.2041376  )
        29           Fe  tau(  29) = (   0.7499777   0.3535178   0.4073649  )
        30           Fe  tau(  30) = (   0.9158921   0.1187480   0.4083186  )
        31           Fe  tau(  31) = (   0.5789168   0.2325855   0.5975038  )
        32           Fe  tau(  32) = (   1.0837573   0.9440761   0.6033463  )
        33           Fe  tau(  33) = (   0.3333315   0.5892543   0.0000000  )
        34           Fe  tau(  34) = (   0.1666652   0.4714034   0.2041376  )
        35           Fe  tau(  35) = (   0.6666640   0.8249560   0.0000000  )
        36           Fe  tau(  36) = (   0.4999978   0.7071052   0.2041376  )
        37           Fe  tau(  37) = (   0.3338519   0.5895177   0.4055248  )
        38           Fe  tau(  38) = (   1.1669243   0.4714708   0.6037214  )
        39           Fe  tau(  39) = (   0.6663270   0.8246388   0.4051057  )
        40           Fe  tau(  40) = (   0.5010608   0.7065394   0.6055939  )
        41           Fe  tau(  41) = (   0.4166640   0.8249560   0.0000000  )
        42           Fe  tau(  42) = (   0.5833315   0.5892543   0.0000000  )
        43           Fe  tau(  43) = (   0.2499978   0.7071052   0.2041376  )
        44           Fe  tau(  44) = (   0.4166652   0.4714034   0.2041376  )
        45           Fe  tau(  45) = (   0.4165048   0.8248803   0.4053621  )
        46           Fe  tau(  46) = (   0.5839100   0.5882505   0.4083180  )
        47           Fe  tau(  47) = (   1.2488733   0.7063050   0.6056667  )
        48           Fe  tau(  48) = (   0.4179970   0.4713885   0.6033736  )
        49           Fe  tau(  49) = (   0.8333315   0.5892543   0.0000000  )
        50           Fe  tau(  50) = (   0.6666652   0.4714034   0.2041376  )
        51           Fe  tau(  51) = (   1.1666640   0.8249560   0.0000000  )
        52           Fe  tau(  52) = (   0.9999978   0.7071052   0.2041376  )
        53           Fe  tau(  53) = (   0.8327470   0.5897300   0.4039319  )
        54           Fe  tau(  54) = (   0.6657260   0.4727122   0.6131325  )
        55           Fe  tau(  55) = (   1.1670807   0.8253806   0.4055355  )
        56           Fe  tau(  56) = (   1.0001521   0.7073150   0.6037730  )
        57           Fe  tau(  57) = (   0.9166640   0.8249560   0.0000000  )
        58           Fe  tau(  58) = (   1.0833315   0.5892543   0.0000000  )
        59           Fe  tau(  59) = (   0.7499978   0.7071052   0.2041376  )
        60           Fe  tau(  60) = (   0.9166652   0.4714034   0.2041376  )
        61           Fe  tau(  61) = (   0.9165976   0.8250245   0.4056139  )
        62           Fe  tau(  62) = (   1.0839122   0.5896712   0.4045043  )
        63           Fe  tau(  63) = (   0.7501686   0.7061123   0.6033263  )
        64           Fe  tau(  64) = (   0.9212191   0.4746106   0.5974738  )
        65           N   tau(  65) = (   0.7500490   0.3535650   0.7527489  )
        66           H   tau(  66) = (   0.8167055   0.4008263   0.8165508  )
        67           H   tau(  67) = (   0.6834440   0.3063984   0.8166722  )
        68           H   tau(  68) = (   0.4576392   0.8539617   0.6989079  )

     number of k points=    10  Methfessel-Paxton smearing, width (Ry)=  0.0100
                       cart. coord. in units 2pi/alat
        k(    1) = (   0.0000000   0.0000000   0.0000000), wk =   0.0625000
        k(    2) = (   0.0000000   0.2651656   0.0000000), wk =   0.1250000
        k(    3) = (   0.0000000  -0.5303313   0.0000000), wk =   0.0625000
        k(    4) = (   0.2500000  -0.0883878   0.0000000), wk =   0.1250000
        k(    5) = (   0.2500000   0.1767779   0.0000000), wk =   0.1250000
        k(    6) = (   0.2500000  -0.6187190   0.0000000), wk =   0.1250000
        k(    7) = (   0.2500000  -0.3535534   0.0000000), wk =   0.1250000
        k(    8) = (  -0.5000000   0.1767755   0.0000000), wk =   0.0625000
        k(    9) = (  -0.5000000   0.4419412   0.0000000), wk =   0.1250000
        k(   10) = (  -0.5000000  -0.3535558   0.0000000), wk =   0.0625000

     Check: negative core charge=   -0.000039

     Initial potential from superposition of free atoms

     starting charge 1031.97191, renormalised to 1032.00000

     negative rho (up, down):  2.434E-02 2.563E-03
     Starting wfcs are  839 randomized atomic wfcs
     Checking if some PAW data can be deallocated...

     Self-consistent Calculation

     iteration #  1     ecut=    60.00 Ry     beta= 0.20
     Davidson diagonalization with overlap
     c_bands:  1 eigenvalues not converged
     ethr =  1.00E-04,  avg # of iterations = 18.6

[...]
     atom:   62    charge:   12.6153    magn:    2.1630    constr:    0.0000
     atom:   63    charge:   12.6258    magn:    2.3709    constr:    0.0000
     atom:   64    charge:   12.6376    magn:    2.3324    constr:    0.0000
     atom:   65    charge:    1.3523    magn:   -0.0017    constr:    0.0000
     atom:   66    charge:    0.4361    magn:    0.0079    constr:    0.0000
     atom:   67    charge:    0.4365    magn:    0.0079    constr:    0.0000
     atom:   68    charge:    0.3541    magn:   -0.0201    constr:    0.0000

     End of self-consistent calculation

 ------ SPIN UP ------------

[...]

 ------ SPIN DOWN ----------

[...]

          k = 0.2500-0.3536 0.0000 (128397 PWs)   bands (ev):

[...]

          k =-0.5000-0.3536 0.0000 (128560 PWs)   bands (ev):

   -92.0366 -92.0334 -91.8377 -91.8365 -91.7920 -91.7854 -91.7837 -91.7765
   -91.7625 -91.7620 -91.7542 -91.7530 -91.7451 -91.7432 -91.7391 -91.7365
   -91.7323 -91.7318 -91.7297 -91.7285 -91.7248 -91.7220 -91.7208 -91.7157
   -91.7154 -91.7145 -91.7134 -91.7124 -91.7105 -91.7061 -91.7055 -91.7030
   -91.7026 -91.6947 -91.6912 -91.6901 -91.6857 -91.6779 -91.6701 -91.6684
   -91.6674 -91.6657 -91.6640 -91.6632 -91.6605 -91.6591 -91.6586 -91.6490
   -91.6449 -91.6429 -91.6423 -91.6423 -91.6407 -91.6403 -91.6394 -91.6356
   -91.6346 -91.6323 -91.6310 -91.6253 -91.6212 -91.6180 -91.6167 -91.6131
   -58.3641 -58.3478 -58.1521 -58.1446 -58.0892 -58.0738 -58.0625 -58.0581
   -58.0478 -58.0458 -58.0337 -58.0318 -58.0313 -58.0277 -58.0271 -58.0238
   -58.0200 -58.0183 -58.0171 -58.0161 -58.0131 -58.0087 -58.0044 -58.0027
   -58.0021 -57.9996 -57.9987 -57.9971 -57.9917 -57.9881 -57.9849 -57.9789
   -57.9770 -57.9698 -57.9694 -57.9674 -57.9656 -57.9585 -57.9559 -57.9551
   -57.9539 -57.9475 -57.9437 -57.9432 -57.9429 -57.9411 -57.9398 -57.9365
   -57.9342 -57.9300 -57.9275 -57.9253 -57.9200 -57.9186 -57.9185 -57.9160
   -57.9125 -57.9123 -57.9122 -57.9094 -57.9075 -57.9067 -57.9045 -57.9020
   -57.8960 -57.8904 -57.8825 -57.8814 -57.8805 -57.8758 -57.8729 -57.8718
   -57.8650 -57.8613 -57.8606 -57.8540 -57.8510 -57.8459 -57.8458 -57.8375
   -57.8371 -57.8319 -57.8275 -57.8268 -57.8259 -57.8224 -57.8199 -57.8195
   -57.8177 -57.8166 -57.8121 -57.8115 -57.8087 -57.8075 -57.8054 -57.7977
   -57.7974 -57.7946 -57.7944 -57.7904 -57.7893 -57.7871 -57.7851 -57.7821
   -57.7753 -57.7729 -57.7709 -57.7696 -57.7679 -57.7673 -57.7656 -57.7626
   -57.7587 -57.7571 -57.7554 -57.7549 -57.7529 -57.7508 -57.7486 -57.7461
   -57.7461 -57.7450 -57.7450 -57.7422 -57.7412 -57.7411 -57.7353 -57.7334
   -57.7321 -57.7315 -57.7298 -57.7285 -57.7244 -57.7217 -57.7179 -57.7136
   -57.7125 -57.7094 -57.7090 -57.7072 -57.7071 -57.7055 -57.7052 -57.7032
   -57.7026 -57.7011 -57.7004 -57.6996 -57.6994 -57.6972 -57.6958 -57.6953
   -57.6922 -57.6904 -57.6873 -57.6858 -57.6844 -57.6830 -57.6827 -57.6812
   -57.6778 -57.6776 -57.6759 -57.6753 -57.6751 -57.6742 -57.6739 -57.6724
   -57.6710 -57.6706 -57.6697 -57.6678 -57.6676 -57.6667 -57.6639 -57.6622
   -57.6615 -57.6600 -57.6590 -57.6573 -57.6545 -57.6542 -57.6534 -57.6523
   -57.6494 -57.6490 -57.6483 -57.6468 -57.6466 -57.6441 -57.6415 -57.6404
   -23.8522 -14.8759 -13.8798 -13.7253 -13.4275 -13.1478 -13.1291 -12.7346
   -12.4177 -11.9449 -11.9274 -11.5484 -11.2067 -11.1409 -11.1348 -11.0787
   -10.7945 -10.7180 -10.4575 -10.2965 -10.2862 -10.2832 -10.2646 -10.2486
   -10.2207 -10.1693 -10.1636 -10.1571 -10.1550 -10.0640  -9.9154  -9.7406
    -9.7384  -9.7265  -9.7209  -9.6761  -9.6170  -9.5136  -9.4455  -9.2663
    -9.2503  -9.2316  -9.2176  -9.2126  -9.1661  -9.1632  -9.1351  -9.1280
    -9.1096  -9.0892  -9.0430  -8.9707  -8.9703  -8.9536  -8.9495  -8.9140
    -8.8662  -8.7068  -8.6913  -8.6834  -8.6811  -8.6718  -8.6298  -8.4575
    -8.4140  -8.4024  -8.3720  -8.3589  -8.3529  -8.2674  -8.2438  -8.1883
    -8.1755  -8.1740  -8.1576  -8.1564  -8.1532  -8.1438  -8.1404  -8.1401
    -8.1198  -8.0751  -8.0555  -8.0537  -8.0411  -8.0373  -8.0361  -8.0346
    -8.0300  -8.0162  -8.0149  -7.9539  -7.9224  -7.8335  -7.8140  -7.8011
    -7.7976  -7.7016  -7.6892  -7.6865  -7.6787  -7.6591  -7.6489  -7.6467
    -7.6343  -7.6327  -7.6178  -7.6128  -7.6126  -7.6047  -7.5990  -7.5950
    -7.5800  -7.5770  -7.5734  -7.5593  -7.5537  -7.5449  -7.5444  -7.5401
    -7.5365  -7.5290  -7.5262  -7.5183  -7.5111  -7.4881  -7.4841  -7.4776
    -7.4519  -7.4467  -7.4393  -7.4375  -7.4319  -7.4248  -7.4233  -7.4194
    -7.4162  -7.4144  -7.4087  -7.4014  -7.3663  -7.3487  -7.3261  -7.2403
    -7.2161  -7.1704  -7.1675  -7.1647  -7.1621  -7.1459  -7.1272  -7.1092
    -7.0968  -7.0925  -7.0614  -7.0250  -7.0021  -6.9913  -6.9815  -6.9728
    -6.9669  -6.9497  -6.9264  -6.9231  -6.9152  -6.9066  -6.8726  -6.8539
    -6.7578  -6.7366  -6.7231  -6.7216  -6.6745  -6.6676  -6.6571  -6.6484
    -6.6468  -6.6361  -6.6331  -6.6297  -6.6160  -6.6014  -6.5671  -6.5403
    -6.5270  -6.5270  -6.5173  -6.5036  -6.4703  -6.3034  -6.2416  -6.2289
    -6.1838  -6.1278  -6.1231  -6.0667  -6.0084  -5.9020  -5.8864  -5.8660
    -5.8585  -5.8429  -5.8043  -5.7892  -5.7658  -5.7333  -5.7171  -5.6946
    -5.6879  -5.6780  -5.6653  -5.6174  -5.6083  -5.5976  -5.5814  -5.5698
    -5.5605  -5.5250  -5.5103  -5.4867  -5.4730  -5.4704  -5.4614  -5.4319
[...]
    -5.0909  -5.0695  -5.0589  -5.0360  -5.0136  -5.0092  -4.9643  -4.9627
    -4.9428  -4.9315  -4.9260  -4.9185  -4.9183  -4.9119  -4.9034  -4.9019
    -4.8996  -4.8967  -4.8945  -4.8882  -4.8709  -4.8647  -4.8645  -4.8578
    -4.8524  -4.8446  -4.8424  -4.8396  -4.8270  -4.7970  -4.7928  -4.7887
    -4.7749  -4.7749  -4.7715  -4.7658  -4.7586  -4.7564  -4.7537  -4.7372
    -4.7329  -4.7311  -4.7159  -4.7155  -4.7066  -4.6999  -4.6908  -4.6816
    -4.6744  -4.6741  -4.6697  -4.6692  -4.6663  -4.6653  -4.6386  -4.6327
    -4.6271  -4.6224  -4.5723  -4.5476  -4.5449  -4.5440  -4.5331  -4.5174
    -4.5146  -4.5136  -4.4966  -4.4910  -4.4858  -4.4845  -4.4802  -4.4795
    -4.4765  -4.4757  -4.4716  -4.4666  -4.4649  -4.4618  -4.4462  -4.4408
    -4.4374  -4.4222  -4.4160  -4.4155  -4.4092  -4.4023  -4.3985  -4.3965
    -4.3838  -4.3809  -4.3707  -4.3658  -4.3640  -4.3185  -4.2912  -4.2891
    -4.2882  -4.2846  -4.2811  -4.2663  -4.1456  -4.1063  -4.0870  -4.0584
    -3.9603  -3.9492  -3.8865  -3.8558  -3.8541  -3.8393  -3.8089  -3.7986
    -3.7926  -3.7642  -3.7605

     the Fermi energy is    -6.6056 ev

!    total energy              =  -21096.13840842 Ry
     Harris-Foulkes estimate   =  -21096.13840908 Ry
     estimated scf accuracy    <          2.8E-11 Ry

     The total energy is the sum of the following terms:

     one-electron contribution = -745819.02042071 Ry
     hartree contribution      =  372654.60011831 Ry
     xc contribution           =   -2235.81151440 Ry
     ewald contribution        =  359178.93605296 Ry
     Dispersion Correction     =      -1.40191306 Ry
     one-center paw contrib.   =   -4873.44162443 Ry
     smearing contrib. (-TS)   =       0.00089290 Ry

     total magnetization       =   161.24 Bohr mag/cell
     absolute magnetization    =   167.93 Bohr mag/cell

     convergence has been achieved in  13 iterations

     negative rho (up, down):  2.444E-02 2.043E-02

     Forces acting on atoms (cartesian axes, Ry/au):

     atom    1 type  1   force =     0.00045414   -0.00001440    0.00967530
     atom    2 type  1   force =    -0.00116063    0.00160538   -0.00555246
     atom    3 type  1   force =    -0.00008039    0.00013132    0.00983288
     atom    4 type  1   force =    -0.00010217    0.00025494   -0.01069396
     atom    5 type  1   force =    -0.00000814    0.00000608   -0.00003074
     atom    6 type  1   force =    -0.00002122    0.00002000   -0.00007146
     atom    7 type  1   force =     0.00002271    0.00000227   -0.00003728
     atom    8 type  1   force =     0.00002952    0.00003293   -0.00002041
     atom    9 type  1   force =    -0.00004192   -0.00002517    0.00985197
     atom   10 type  1   force =    -0.00020770   -0.00016750    0.00877347
     atom   11 type  1   force =     0.00019307   -0.00001539   -0.01095590
     atom   12 type  1   force =    -0.00031747   -0.00014293   -0.01005442
     atom   13 type  1   force =     0.00000165    0.00000176   -0.00005350
     atom   14 type  1   force =     0.00001971    0.00001326   -0.00009250
     atom   15 type  1   force =     0.00013029    0.00003333    0.00000599
     atom   16 type  1   force =     0.00003870    0.00002813   -0.00005523
     atom   17 type  1   force =     0.00014868   -0.00013676    0.00981712
     atom   18 type  1   force =     0.00024497   -0.00015218   -0.01068755
     atom   19 type  1   force =    -0.00000804    0.00001305    0.01001603
     atom   20 type  1   force =    -0.00010132   -0.00011858   -0.00624857
     atom   21 type  1   force =     0.00000613    0.00001779   -0.00003442
     atom   22 type  1   force =     0.00004034    0.00001173   -0.00002107
     atom   23 type  1   force =    -0.00001894    0.00000075   -0.00002694
     atom   24 type  1   force =    -0.00007128    0.00008174    0.00026294
     atom   25 type  1   force =     0.00000998   -0.00005100    0.00789781
     atom   26 type  1   force =     0.00005243   -0.00020414    0.00963477
     atom   27 type  1   force =    -0.00000698   -0.00009834   -0.01096877
     atom   28 type  1   force =     0.00016448   -0.00023010   -0.01020239
     atom   29 type  1   force =     0.00000288    0.00000094    0.00000984
     atom   30 type  1   force =    -0.00001550    0.00000170   -0.00005579
     atom   31 type  1   force =    -0.00010867   -0.00007687    0.00002014
     atom   32 type  1   force =    -0.00007721   -0.00011537    0.00001524
     atom   33 type  1   force =    -0.00027327   -0.00002788    0.00955885
     atom   34 type  1   force =     0.00031435   -0.00015030   -0.01070146
     atom   35 type  1   force =     0.00013695    0.00045820    0.00973258
     atom   36 type  1   force =     0.00103724   -0.00150510   -0.00554424
     atom   37 type  1   force =    -0.00000531    0.00000238   -0.00002600
     atom   38 type  1   force =    -0.00000734   -0.00002484   -0.00001260
     atom   39 type  1   force =     0.00000087   -0.00001222   -0.00002505
     atom   40 type  1   force =     0.00000251   -0.00003617   -0.00008101
     atom   41 type  1   force =     0.00002498    0.00008719    0.00697180
     atom   42 type  1   force =    -0.00019031    0.00013440    0.00960135
     atom   43 type  1   force =    -0.00000273    0.00009091   -0.00945028
     atom   44 type  1   force =    -0.00019608    0.00021454   -0.01017889
     atom   45 type  1   force =    -0.00000160    0.00000013   -0.00003350
     atom   46 type  1   force =    -0.00000273   -0.00001495   -0.00005491
     atom   47 type  1   force =    -0.00004617   -0.00004044   -0.00000975
     atom   48 type  1   force =    -0.00013607   -0.00003817    0.00000922
     atom   49 type  1   force =     0.00006502   -0.00003650    0.01004651
     atom   50 type  1   force =    -0.00007585   -0.00014876   -0.00622194
     atom   51 type  1   force =    -0.00013125   -0.00021227    0.00950926
     atom   52 type  1   force =    -0.00001935    0.00038589   -0.01071440
     atom   53 type  1   force =    -0.00000160   -0.00001981   -0.00003073
     atom   54 type  1   force =     0.00006136   -0.00009162    0.00026440
     atom   55 type  1   force =     0.00000385   -0.00000433   -0.00002204
     atom   56 type  1   force =    -0.00002902   -0.00000113   -0.00000929
     atom   57 type  1   force =    -0.00007483   -0.00002362    0.00986204
     atom   58 type  1   force =     0.00007924    0.00002064    0.00870562
     atom   59 type  1   force =     0.00006073    0.00019886   -0.01094933
     atom   60 type  1   force =     0.00008176   -0.00003856   -0.01081859
     atom   61 type  1   force =     0.00000059    0.00000013   -0.00005350
     atom   62 type  1   force =    -0.00001828   -0.00001060   -0.00007305
     atom   63 type  1   force =     0.00007647    0.00010987   -0.00000255
     atom   64 type  1   force =     0.00009895    0.00006889    0.00001715
     atom   65 type  2   force =    -0.00002928   -0.00002137    0.00006079
     atom   66 type  3   force =    -0.00003051   -0.00003958    0.00007001
     atom   67 type  3   force =     0.00000622    0.00001902    0.00004956
     atom   68 type  3   force =     0.00000837   -0.00000116   -0.00006543

     Total force =     0.000598     Total SCF correction =     0.000049

     bfgs converged in   9 scf cycles and   8 bfgs steps
     (criteria: energy <  7.3E-07 Ry, force <  3.9E-04 Ry/Bohr)

     End of BFGS Geometry Optimization

     Final energy   =  -21096.1384084187 Ry
Begin final coordinates

ATOMIC_POSITIONS (angstrom)
Fe       1.654912953   1.170200133   0.000000000    0   0   0
Fe       0.000000000   0.000000000   2.026984232    0   0   0
Fe       4.964738858   3.510600399   0.000000000    0   0   0
Fe       3.309825906   2.340400266   2.026984232    0   0   0
Fe       1.650141956   1.168512070   4.022266909
Fe       3.308002933   9.373618884   6.012785980
Fe       4.961903616   3.517002090   4.012894915
Fe       3.309220754   2.330373075   5.998325399
Fe       2.482363858   3.510600399   0.000000000    0   0   0
Fe       4.137287953   1.170200133   0.000000000    0   0   0
Fe       0.827450906   2.340400266   2.026984232    0   0   0
Fe       2.482375000   0.000000000   2.026984232    0   0   0
Fe       2.482643342   3.509643718   4.027953365
Fe       4.131051492   1.165889566   4.019104933
Fe       0.817103866   2.344385287   5.990858235
Fe       2.481240495  -0.000711117   6.002339702
Fe       6.619662953   1.170200133   0.000000000    0   0   0
Fe       4.964750000   0.000000000   2.026984232    0   0   0
Fe       9.929488858   3.510600399   0.000000000    0   0   0
Fe       8.274575906   2.340400266   2.026984232    0   0   0
Fe       6.624802882   1.165355752   4.012882222
Fe       4.955117745   0.002779359   5.997801082
Fe       9.932112065   3.503070118   4.011180317
Fe       8.282985442   2.328798391   6.089440300
Fe       7.447113858   3.510600399   0.000000000    0   0   0
Fe       9.102037953   1.170200133   0.000000000    0   0   0
Fe       5.792200906   2.340400266   2.026984232    0   0   0
Fe       7.447125000   0.000000000   2.026984232    0   0   0
Fe       7.446897793   3.510237290   4.044322261
Fe       9.094172120   1.179365929   4.054454485
Fe       5.751935846   2.311885372   5.931890818
Fe      10.762271371   9.375839971   5.990647973
Fe       3.309814764   5.851000664   0.000000000    0   0   0
Fe       1.654901811   4.680800531   2.026984232    0   0   0
Fe       6.619640670   8.191400930   0.000000000    0   0   0
Fe       4.964727717   7.021200797   2.026984232    0   0   0
Fe       3.315097430   5.853477695   4.027028988
Fe      11.585872685   4.681998025   5.992658464
Fe       6.616374657   8.187784898   4.022189685
Fe       4.975273207   7.015974134   6.012515678
Fe       4.137265670   8.191400930   0.000000000    0   0   0
Fe       5.792189764   5.851000664   0.000000000    0   0   0
Fe       2.482352717   7.021200797   2.026984232    0   0   0
Fe       4.137276811   4.680800531   2.026984232    0   0   0
Fe       4.135511458   8.190586028   4.024593838
Fe       5.798107401   5.840758628   4.054289650
Fe      12.401501430   7.013933729   6.013909188
Fe       4.152404849   4.681203827   5.990718106
Fe       8.274564764   5.851000664   0.000000000    0   0   0
Fe       6.619651811   4.680800531   2.026984232    0   0   0
Fe      11.584390670   8.191400930   0.000000000    0   0   0
Fe       9.929477717   7.021200797   2.026984232    0   0   0
Fe       8.268446034   5.855897199   4.011150451
Fe       6.611776077   4.691906495   6.089132906
Fe      11.588345354   8.195821586   4.027131831
Fe       9.931300216   7.022143589   5.993325135
Fe       9.102015670   8.191400930   0.000000000    0   0   0
Fe      10.756939764   5.851000664   0.000000000    0   0   0
Fe       7.447102717   7.021200797   2.026984232    0   0   0
Fe       9.102026811   4.680800531   2.026984232    0   0   0
Fe       9.101390537   8.192030953   4.028026919
Fe      10.762801285   5.855206356   4.016850699
Fe       7.447420338   7.010060230   5.990893880
Fe       9.143775428   4.710247491   5.931437143
N        7.447365103   3.510579575   7.473500465
H        8.106772844   3.977755920   8.112545708
H        6.788539158   3.044186998   8.113712404
H        4.544297661   8.479491428   6.936483539
End final coordinates

     Writing output data file Fe_NH2_H_paper_480c_ESM_pn25.save/

     General routines

     Parallel routines

   This run was terminated on:  15:31:38  13Jun2022

   JOB DONE.