     Program PWSCF v.6.7MaX starts on 16Jun2022 at 19:30:17

     K-points division:     npool     =       8
     R & G space division:  proc/nbgrp/npool/nimage =      32
     Waiting for input...
     Reading input from standard input
Warning: card &CELL ignored
Warning: card / ignored

     Current dimensions of program PWSCF are:
     Max number of different atomic species (ntypx) = 10
     Max number of k-points (npk) =  40000
     Max angular momentum in pseudopotentials (lmaxx) =  3
     file Fe.pbe-spn-kjpaw_psl.0.2.1.UPF: wavefunction(s)  3D renormalized

     IMPORTANT: XC functional enforced from input :
     Exchange-correlation= PBE
                           (   1   4   3   4   0   0   0)
     Any further DFT definition will be discarded
     Please, verify this is what you really want

     Parameters for Dispersion (Grimme-D2) Correction:
       atom      VdW radius       C_6

        Fe         2.952        374.666
        N          2.640         42.670
        H          1.892          4.857

     bravais-lattice index     =            0
     lattice parameter (alat)  =      18.7640  a.u.
     unit-cell volume          =   16360.3161 (a.u.)^3
     number of atoms/cell      =           68
     number of atomic types    =            3
     number of electrons       =      1032.00
     number of Kohn-Sham states=          619
     kinetic-energy cutoff     =      60.0000  Ry
     charge density cutoff     =     480.0000  Ry
     scf convergence threshold =      1.0E-08
     mixing beta               =       0.2000
     number of iterations used =           10  local-TF  mixing
     energy convergence thresh.=      7.3E-07
     force convergence thresh. =      3.9E-04
     Exchange-correlation= PBE
                           (   1   4   3   4   0   0   0)
     nstep                     =           50

     Effective Screening Medium Method
     Boundary Conditions: Metal-Slab-Metal
     field strength                   =     0.02 Ry/a.u.
     grid points for fit at edges     =        4

     celldm(1)=  18.764036  celldm(2)=   0.000000  celldm(3)=   0.000000
     celldm(4)=   0.000000  celldm(5)=   0.000000  celldm(6)=   0.000000

     crystal axes: (cart. coord. in units of alat)
               a(1) = (   1.000000   0.000000   0.000000 )
               a(2) = (   0.333330   0.942807   0.000000 )
               a(3) = (   0.000000   0.000000   2.626577 )

     reciprocal axes: (cart. coord. in units 2 pi/alat)
               b(1) = (  1.000000 -0.353551  0.000000 )
               b(2) = (  0.000000  1.060663  0.000000 )
               b(3) = (  0.000000  0.000000  0.380724 )

     PseudoPot. # 1 for Fe read from file:
     ../../SSSP/Fe.pbe-spn-kjpaw_psl.0.2.1.UPF
     MD5 check sum: e86618425769142926afa95317d90200
     Pseudo is Projector augmented-wave + core cor, Zval = 16.0
     Generated using "atomic" code by A. Dal Corso  v.5.0.99 svn rev. 10869
     Shape of augmentation charge: PSQ
     Using radial grid of 1191 points,  6 beta functions with:
                l(1) =   0
                l(2) =   0
                l(3) =   1
                l(4) =   1
                l(5) =   2
                l(6) =   2
     Q(r) pseudized with 0 coefficients

     PseudoPot. # 2 for N  read from file:
     ../../SSSP/N.pbe-n-radius_5.UPF
     MD5 check sum: 16739722b17309cd8fe442a2ace49922
     Pseudo is Ultrasoft + core correction, Zval =  5.0
     Generated using "atomic" code by A. Dal Corso  v.5.1
     Using radial grid of 1085 points,  4 beta functions with:
                l(1) =   0
                l(2) =   0
                l(3) =   1
                l(4) =   1
     Q(r) pseudized with 0 coefficients

     PseudoPot. # 3 for H  read from file:
     ../../SSSP/H.pbe-rrkjus_psl.1.0.0.UPF
     MD5 check sum: f52b6d4d1c606e5624b1dc7b2218f220
     Pseudo is Ultrasoft, Zval =  1.0
     Generated using "atomic" code by A. Dal Corso  v.5.1
     Using radial grid of  929 points,  2 beta functions with:
                l(1) =   0
                l(2) =   0
     Q(r) pseudized with 0 coefficients

     atomic species   valence    mass     pseudopotential
        Fe            16.00    55.84500     Fe( 1.00)
        N              5.00    14.00700     N ( 1.00)
        H              1.00     1.00800     H ( 1.00)

     Starting magnetic structure
     atomic species   magnetization
        Fe           0.100
        N            0.100
        H            0.100

     No symmetry found

   Cartesian axes

     site n.     atom                  positions (alat units)
         1           Fe  tau(   1) = (   0.1666663   0.1178509   0.0000000  )
         2           Fe  tau(   2) = (   0.0000000   0.0000000   0.2041376  )
         3           Fe  tau(   3) = (   0.4999989   0.3535526   0.0000000  )
         4           Fe  tau(   4) = (   0.3333326   0.2357017   0.2041376  )
         5           Fe  tau(   5) = (   0.1668249   0.1179532   0.4059662  )
         6           Fe  tau(   6) = (   0.3333785   0.9428338   0.6047282  )
         7           Fe  tau(   7) = (   0.5004123   0.3538396   0.4050795  )
         8           Fe  tau(   8) = (   0.3334145   0.2357667   0.6051093  )
         9           Fe  tau(   9) = (   0.2499989   0.3535526   0.0000000  )
        10           Fe  tau(  10) = (   0.4166663   0.1178509   0.0000000  )
        11           Fe  tau(  11) = (   0.0833326   0.2357017   0.2041376  )
        12           Fe  tau(  12) = (   0.2500000   0.0000000   0.2041376  )
        13           Fe  tau(  13) = (   0.2499771   0.3536664   0.4059905  )
        14           Fe  tau(  14) = (   0.4167776   0.1177975   0.4060003  )
        15           Fe  tau(  15) = (   0.0833593   0.2360960   0.6063028  )
        16           Fe  tau(  16) = (   0.2503907  -0.0001207   0.6063032  )
        17           Fe  tau(  17) = (   0.6666663   0.1178509   0.0000000  )
        18           Fe  tau(  18) = (   0.5000000   0.0000000   0.2041376  )
        19           Fe  tau(  19) = (   0.9999989   0.3535526   0.0000000  )
        20           Fe  tau(  20) = (   0.8333326   0.2357017   0.2041376  )
        21           Fe  tau(  21) = (   0.6669341   0.1174471   0.4048465  )
        22           Fe  tau(  22) = (   0.4999757  -0.0002191   0.6074057  )
        23           Fe  tau(  23) = (   1.0002044   0.3531334   0.4049112  )
        24           Fe  tau(  24) = (   0.8340435   0.2346135   0.6000708  )
        25           Fe  tau(  25) = (   0.7499989   0.3535526   0.0000000  )
        26           Fe  tau(  26) = (   0.9166663   0.1178509   0.0000000  )
        27           Fe  tau(  27) = (   0.5833326   0.2357017   0.2041376  )
        28           Fe  tau(  28) = (   0.7500000   0.0000000   0.2041376  )
        29           Fe  tau(  29) = (   0.7488335   0.3550697   0.4063707  )
        30           Fe  tau(  30) = (   0.9170880   0.1172556   0.4044106  )
        31           Fe  tau(  31) = (   0.5835334   0.2346375   0.6017975  )
        32           Fe  tau(  32) = (   1.0829358   0.9427144   0.6060846  )
        33           Fe  tau(  33) = (   0.3333315   0.5892543   0.0000000  )
        34           Fe  tau(  34) = (   0.1666652   0.4714034   0.2041376  )
        35           Fe  tau(  35) = (   0.6666640   0.8249560   0.0000000  )
        36           Fe  tau(  36) = (   0.4999978   0.7071052   0.2041376  )
        37           Fe  tau(  37) = (   0.3330389   0.5896649   0.4048328  )
        38           Fe  tau(  38) = (   1.1664811   0.4714203   0.6074061  )
        39           Fe  tau(  39) = (   0.6663263   0.8253041   0.4048998  )
        40           Fe  tau(  40) = (   0.4992745   0.7080793   0.6002154  )
        41           Fe  tau(  41) = (   0.4166640   0.8249560   0.0000000  )
        42           Fe  tau(  42) = (   0.5833315   0.5892543   0.0000000  )
        43           Fe  tau(  43) = (   0.2499978   0.7071052   0.2041376  )
        44           Fe  tau(  44) = (   0.4166652   0.4714034   0.2041376  )
        45           Fe  tau(  45) = (   0.4162494   0.8255522   0.4044337  )
        46           Fe  tau(  46) = (   0.5843626   0.5876739   0.4063456  )
        47           Fe  tau(  47) = (   1.2498143   0.7067507   0.6060826  )
        48           Fe  tau(  48) = (   0.4156733   0.4719457   0.6017034  )
        49           Fe  tau(  49) = (   0.8333315   0.5892543   0.0000000  )
        50           Fe  tau(  50) = (   0.6666652   0.4714034   0.2041376  )
        51           Fe  tau(  51) = (   1.1666640   0.8249560   0.0000000  )
        52           Fe  tau(  52) = (   0.9999978   0.7071052   0.2041376  )
        53           Fe  tau(  53) = (   0.8328637   0.5889089   0.4051824  )
        54           Fe  tau(  54) = (   0.6663832   0.4713924   0.6180021  )
        55           Fe  tau(  55) = (   1.1664919   0.8248224   0.4058443  )
        56           Fe  tau(  56) = (   0.9999094   0.7070341   0.6048719  )
        57           Fe  tau(  57) = (   0.9166640   0.8249560   0.0000000  )
        58           Fe  tau(  58) = (   1.0833315   0.5892543   0.0000000  )
        59           Fe  tau(  59) = (   0.7499978   0.7071052   0.2041376  )
        60           Fe  tau(  60) = (   0.9166652   0.4714034   0.2041376  )
        61           Fe  tau(  61) = (   0.9164799   0.8249391   0.4059278  )
        62           Fe  tau(  62) = (   1.0832494   0.5890708   0.4059374  )
        63           Fe  tau(  63) = (   0.7496123   0.7079819   0.6019909  )
        64           Fe  tau(  64) = (   0.9173109   0.4707053   0.6020957  )
        65           N   tau(  65) = (   0.6673229   0.4715362   0.8274342  )
        66           H   tau(  66) = (   0.6648116   0.5683547   0.8625546  )
        67           H   tau(  67) = (   0.5836529   0.4210554   0.8603163  )
        68           H   tau(  68) = (   0.7518327   0.4239311   0.8621579  )

     number of k points=    10  Methfessel-Paxton smearing, width (Ry)=  0.0100
                       cart. coord. in units 2pi/alat
        k(    1) = (   0.0000000   0.0000000   0.0000000), wk =   0.0625000
        k(    2) = (   0.0000000   0.2651656   0.0000000), wk =   0.1250000
        k(    3) = (   0.0000000  -0.5303313   0.0000000), wk =   0.0625000
        k(    4) = (   0.2500000  -0.0883878   0.0000000), wk =   0.1250000
        k(    5) = (   0.2500000   0.1767779   0.0000000), wk =   0.1250000
        k(    6) = (   0.2500000  -0.6187190   0.0000000), wk =   0.1250000
        k(    7) = (   0.2500000  -0.3535534   0.0000000), wk =   0.1250000
        k(    8) = (  -0.5000000   0.1767755   0.0000000), wk =   0.0625000
        k(    9) = (  -0.5000000   0.4419412   0.0000000), wk =   0.1250000
        k(   10) = (  -0.5000000  -0.3535558   0.0000000), wk =   0.0625000

     Check: negative core charge=   -0.000039
     Generating pointlists ...
     new r_m :   0.0864 (alat units)  1.6211 (a.u.) for type    1
     new r_m :   0.0425 (alat units)  0.7974 (a.u.) for type    2
     new r_m :   0.0425 (alat units)  0.7974 (a.u.) for type    3

     Initial potential from superposition of free atoms

     starting charge 1031.97191, renormalised to 1032.00000

     negative rho (up, down):  1.308E-02 1.070E-02
[...]
   -52.1016 -52.0246 -51.9707 -51.9578 -51.9573 -51.9511 -51.9471 -51.9424
   -51.9409 -51.9396 -51.9376 -51.9374 -51.9356 -51.9352 -51.9348 -51.9347
   -51.9309 -51.9297 -51.9293 -51.9248 -51.9214 -51.9199 -51.9129 -51.9126
   -51.9090 -51.9025 -51.8981 -51.8978 -51.8957 -51.8950 -51.8914 -51.8912
   -51.8905 -51.8746 -51.8744 -51.8724 -51.8667 -51.8631 -51.8621 -51.8620
   -51.8604 -51.8595 -51.8582 -51.8574 -51.8568 -51.8556 -51.8536 -51.8524
   -51.8515 -51.8505 -51.8480 -51.8468 -51.8464 -51.8447 -51.8416 -51.8412
   -51.8410 -51.8391 -51.8384 -51.8375 -51.8371 -51.8370 -51.8364 -51.8045
   -51.8032 -51.7982 -51.7959 -51.7957 -51.7899 -51.7873 -51.7839 -51.7836
   -51.7792 -51.7772 -51.7731 -51.7636 -51.7625 -51.7565 -51.7550 -51.7505
   -51.7474 -51.7448 -51.7423 -51.7392 -51.7374 -51.7350 -51.7319 -51.7310
   -51.7308 -51.7299 -51.7288 -51.7282 -51.7269 -51.7260 -51.7176 -51.7156
   -51.7123 -51.7089 -51.7073 -51.7070 -51.7049 -51.7035 -51.7018 -51.7013
   -51.7010 -51.7000 -51.6958 -51.6923 -51.6921 -51.6887 -51.6882 -51.6879
   -51.6839 -51.6819 -51.6798 -51.6755 -51.6751 -51.6688 -51.6675 -51.6642
   -51.6616 -51.6611 -51.6610 -51.6595 -51.6593 -51.6562 -51.6558 -51.6501
   -51.6490 -51.6456 -51.6443 -51.6399 -51.6371 -51.6367 -51.6354 -51.6351
   -51.6340 -51.6330 -51.6317 -51.6314 -51.6314 -51.6297 -51.6295 -51.6293
   -51.6280 -51.6276 -51.6257 -51.6253 -51.6240 -51.6229 -51.6179 -51.6169
   -51.6158 -51.6154 -51.6129 -51.6115 -51.6113 -51.6104 -51.6102 -51.6097
   -51.6094 -51.6087 -51.6083 -51.6073 -51.6067 -51.6055 -51.6047 -51.6024
   -51.6018 -51.6014 -51.6007 -51.5988 -51.5973 -51.5966 -51.5961 -51.5957
   -51.5946 -51.5940 -51.5903 -51.5899 -51.5882 -51.5882 -51.5845 -51.5841
   -51.5820 -51.5806 -51.5806 -51.5776 -51.5762 -51.5739 -51.5731 -51.5692
   -19.6133  -9.8877  -9.8709  -7.6602  -7.6473  -7.0783  -7.0646  -6.4982
    -6.3604  -6.0749  -5.8183  -5.6760  -5.0653  -5.0579  -5.0570  -5.0400
    -4.6602  -4.6182  -4.2161  -4.2156  -4.2139  -4.2125  -4.2071  -4.1885
    -4.1248  -4.0952  -4.0771  -4.0768  -4.0738  -4.0535  -3.6571  -3.6550
    -3.6540  -3.6502  -3.6479  -3.6343  -3.4405  -3.4366  -3.1888  -3.1858
    -3.1559  -3.1514  -3.1479  -3.1322  -3.0916  -3.0867  -3.0495  -3.0489
    -3.0448  -3.0354  -2.8910  -2.8812  -2.8788  -2.8704  -2.8608  -2.8524
    -2.6123  -2.6092  -2.6010  -2.5977  -2.5970  -2.5905  -2.3827  -2.3805
    -2.3312  -2.3260  -2.2783  -2.2708  -2.1742  -2.1735  -2.0965  -2.0938
    -2.0898  -2.0840  -2.0808  -2.0711  -2.0623  -2.0610  -2.0558  -2.0479
    -1.9696  -1.9667  -1.9635  -1.9545  -1.9539  -1.9500  -1.9498  -1.9494
    -1.9442  -1.9424  -1.9411  -1.9386  -1.7389  -1.7339  -1.7193  -1.7191
    -1.5987  -1.5966  -1.5957  -1.5935  -1.5820  -1.5739  -1.5381  -1.5341
    -1.5332  -1.5282  -1.5278  -1.5192  -1.5157  -1.5069  -1.5001  -1.4962
    -1.4949  -1.4886  -1.4858  -1.4632  -1.4596  -1.4588  -1.4583  -1.4549
    -1.4520  -1.4473  -1.4467  -1.4416  -1.4324  -1.4166  -1.4130  -1.3992
    -1.3655  -1.3563  -1.3539  -1.3513  -1.3464  -1.3423  -1.3400  -1.3386
    -1.3383  -1.3360  -1.3298  -1.3127  -1.2821  -1.2666  -1.1420  -1.1363
    -1.0894  -1.0833  -1.0789  -1.0752  -1.0659  -1.0562  -1.0275  -1.0227
    -1.0143  -1.0121  -0.9554  -0.9322  -0.9024  -0.8988  -0.8950  -0.8879
    -0.8614  -0.8563  -0.8524  -0.8335  -0.8298  -0.8285  -0.8229  -0.8058
    -0.6687  -0.6632  -0.6518  -0.6435  -0.6411  -0.6207  -0.5609  -0.5591
    -0.5541  -0.5507  -0.5437  -0.5097  -0.5051  -0.5037  -0.4464  -0.4430
    -0.4394  -0.4346  -0.4338  -0.4330  -0.4134  -0.4100  -0.1842  -0.1541
    -0.1244  -0.0873  -0.0598  -0.0455   0.0075   0.0254   0.1941   0.1975
     0.2129   0.2325   0.2532   0.2738   0.3216   0.3485   0.3616   0.3679
     0.3761   0.3940   0.4418   0.4532   0.4542   0.4560   0.4903   0.5013
     0.5047   0.5181   0.5655   0.5849   0.5957   0.6140   0.6210   0.6547
[...]
     1.0054   1.0224   1.0568   1.0755   1.1282   1.1355   1.1393   1.1457
     1.1505   1.1537   1.1549   1.1629   1.1658   1.1659   1.1920   1.1999
     1.2028   1.2121   1.2148   1.2172   1.2212   1.2215   1.2227   1.2238
     1.2450   1.2517   1.2761   1.2802   1.2806   1.2953   1.3011   1.3033
     1.3055   1.3223   1.3227   1.3255   1.3264   1.3355   1.3392   1.3405
     1.3636   1.3657   1.3672   1.3709   1.3845   1.3882   1.3891   1.3937
     1.3952   1.3983   1.4064   1.4087   1.4110   1.4371   1.4870   1.5087
     1.5102   1.5195   1.5259   1.5321   1.5422   1.5458   1.5467   1.5653
     1.5821   1.5839   1.5871   1.5907   1.5948   1.5979   1.6018   1.6040
     1.6078   1.6110   1.6116   1.6121   1.6148   1.6170   1.6204   1.6246
     1.6670   1.6718   1.6720   1.6807   1.6854   1.6867   1.6910   1.6971
     1.6979   1.6984   1.7042   1.7431   1.7724   1.7827   1.7895   1.7908
     1.7974   1.8005   1.9455   1.9919   2.0076   2.0428   2.0582   2.0942
     2.2072   2.2132   2.2189   2.2210   2.2499   2.2551   2.2739   2.2760
     2.3038   2.3063   2.3107

     the Fermi energy is    -0.5465 ev

!    total energy              =  -21096.12295713 Ry
     estimated scf accuracy    <          7.6E-11 Ry
     smearing contrib. (-TS)   =       0.00093389 Ry
     internal energy E=F+TS    =  -21096.12389102 Ry

     The total energy is F=E-TS. E is the sum of the following terms:
     one-electron contribution = -743422.04111027 Ry
     hartree contribution      =  371686.12775345 Ry
     xc contribution           =   -2235.74542566 Ry
     ewald contribution        =  357750.35855649 Ry
     Dispersion Correction     =      -1.39556567 Ry
     one-center paw contrib.   =   -4873.42809936 Ry

     total magnetization       =   162.38 Bohr mag/cell
     absolute magnetization    =   169.08 Bohr mag/cell

     convergence has been achieved in  13 iterations

     negative rho (up, down):  1.076E-02 1.429E-02

     Forces acting on atoms (cartesian axes, Ry/au):

     atom    1 type  1   force =    -0.00004435   -0.00002939    0.00877288
     atom    2 type  1   force =    -0.00001540   -0.00003323   -0.01018877
     atom    3 type  1   force =     0.00050181    0.00035270    0.00901847
     atom    4 type  1   force =    -0.00003644   -0.00001811   -0.00784606
     atom    5 type  1   force =    -0.00000349   -0.00000283    0.00002366
     atom    6 type  1   force =     0.00000392    0.00000440    0.00007546
     atom    7 type  1   force =    -0.00006792   -0.00004841   -0.00011123
     atom    8 type  1   force =     0.00003145    0.00002247   -0.00001823
     atom    9 type  1   force =     0.00003684   -0.00005726    0.00861021
     atom   10 type  1   force =    -0.00002901    0.00003140    0.00862307
     atom   11 type  1   force =     0.00011498   -0.00055253   -0.00922260
     atom   12 type  1   force =    -0.00048374    0.00030593   -0.00926713
     atom   13 type  1   force =     0.00000332    0.00000382   -0.00004707
     atom   14 type  1   force =     0.00000460    0.00000147   -0.00004558
     atom   15 type  1   force =    -0.00001615    0.00002166    0.00003284
     atom   16 type  1   force =     0.00001609   -0.00001934    0.00003449
     atom   17 type  1   force =    -0.00036456    0.00034999    0.00943115
     atom   18 type  1   force =    -0.00005342    0.00006648   -0.00873756
     atom   19 type  1   force =    -0.00017992    0.00050051    0.00941925
     atom   20 type  1   force =    -0.00058002    0.00079626   -0.00760449
     atom   21 type  1   force =     0.00001851    0.00000839   -0.00002883
     atom   22 type  1   force =     0.00000193   -0.00000049   -0.00002036
     atom   23 type  1   force =    -0.00001145   -0.00001533   -0.00002856
     atom   24 type  1   force =     0.00002669   -0.00003604   -0.00007158
     atom   25 type  1   force =     0.00005167   -0.00002937    0.00911385
     atom   26 type  1   force =    -0.00019120    0.00025840    0.00917113
     atom   27 type  1   force =     0.00042798   -0.00020152   -0.00987276
     atom   28 type  1   force =     0.00045835   -0.00031790   -0.00946712
     atom   29 type  1   force =     0.00003460   -0.00004682   -0.00018807
     atom   30 type  1   force =     0.00002200   -0.00002984   -0.00003219
     atom   31 type  1   force =    -0.00000025   -0.00002569   -0.00001417
     atom   32 type  1   force =    -0.00000998    0.00001710    0.00003472
     atom   33 type  1   force =     0.00020696   -0.00046743    0.00943615
     atom   34 type  1   force =     0.00005721   -0.00006184   -0.00873396
     atom   35 type  1   force =     0.00040211   -0.00035221    0.00941635
     atom   36 type  1   force =     0.00057819   -0.00082387   -0.00756702
     atom   37 type  1   force =     0.00001268    0.00001459   -0.00003055
     atom   38 type  1   force =     0.00000031    0.00000303   -0.00002103
     atom   39 type  1   force =    -0.00001874   -0.00000439   -0.00002987
     atom   40 type  1   force =    -0.00002394    0.00003729   -0.00006636
     atom   41 type  1   force =     0.00017972   -0.00025376    0.00917466
     atom   42 type  1   force =    -0.00000498    0.00005997    0.00910971
     atom   43 type  1   force =    -0.00016691    0.00052643   -0.00950465
     atom   44 type  1   force =    -0.00006587    0.00045603   -0.00989127
     atom   45 type  1   force =    -0.00002110    0.00003025   -0.00003197
     atom   46 type  1   force =    -0.00003573    0.00005003   -0.00019269
     atom   47 type  1   force =     0.00001264   -0.00001452    0.00003576
     atom   48 type  1   force =    -0.00002743    0.00001149   -0.00002102
     atom   49 type  1   force =    -0.00052809   -0.00037267    0.00899392
     atom   50 type  1   force =     0.00000200    0.00000169   -0.00736652
     atom   51 type  1   force =     0.00003516    0.00002453    0.00881027
     atom   52 type  1   force =     0.00006150    0.00005233   -0.00808207
     atom   53 type  1   force =     0.00006698    0.00004520   -0.00011129
     atom   54 type  1   force =    -0.00000677    0.00000334    0.00001460
     atom   55 type  1   force =     0.00000705    0.00000375    0.00002239
     atom   56 type  1   force =    -0.00002632   -0.00001798   -0.00001196
     atom   57 type  1   force =     0.00006245   -0.00003995    0.00862017
     atom   58 type  1   force =    -0.00001260    0.00006787    0.00862976
     atom   59 type  1   force =    -0.00044392    0.00008062   -0.00973332
     atom   60 type  1   force =    -0.00007881   -0.00046204   -0.00971937
     atom   61 type  1   force =    -0.00000081    0.00000331   -0.00004629
     atom   62 type  1   force =     0.00000251   -0.00000179   -0.00004525
     atom   63 type  1   force =    -0.00000480    0.00002749   -0.00002891
     atom   64 type  1   force =     0.00002064   -0.00001167   -0.00001826
     atom   65 type  2   force =     0.00013313   -0.00009249   -0.00004734
     atom   66 type  3   force =    -0.00002809    0.00011885   -0.00012009
     atom   67 type  3   force =     0.00000383   -0.00003311   -0.00015701
     atom   68 type  3   force =    -0.00001761    0.00011478   -0.00018039

     Total force =     0.000550     Total SCF correction =     0.000041
     Energy error            =      3.1E-07
     Gradient error          =      1.9E-04

     bfgs converged in  14 scf cycles and  13 bfgs steps
     (criteria: energy <  7.3E-07 Ry, force <  3.9E-04 Ry/Bohr)

     End of BFGS Geometry Optimization

     Final energy   =  -21096.1229571295 Ry

     File ./Fe_NH3_paper_480c_ESM_p5.bfgs deleted, as requested
Begin final coordinates

ATOMIC_POSITIONS (angstrom)
Fe            1.6549129530        1.1702001330        0.0000000000    0   0   0
Fe            0.0000000000        0.0000000000        2.0269842320    0   0   0
Fe            4.9647388580        3.5106003990        0.0000000000    0   0   0
Fe            3.3098259060        2.3404002660        2.0269842320    0   0   0
Fe            1.6562365620        1.1710832795        4.0354080848
Fe            3.3102840135        9.3617920044        6.0109301173
Fe            4.9684743781        3.5132413968        4.0262330604
Fe            3.3104313762        2.3409245387        6.0210002433
Fe            2.4823638580        3.5106003990        0.0000000000    0   0   0
Fe            4.1372879530        1.1702001330        0.0000000000    0   0   0
Fe            0.8274509060        2.3404002660        2.0269842320    0   0   0
Fe            2.4823750000        0.0000000000        2.0269842320    0   0   0
Fe            2.4824287119        3.5115571721        4.0365412159
Fe            4.1382872813        1.1700373307        4.0366217930
Fe            0.8275266412        2.3435095627        6.0297725962
Fe            2.4854564059       -0.0010957520        6.0296808463
Fe            6.6196629530        1.1702001330        0.0000000000    0   0   0
Fe            4.9647500000        0.0000000000        2.0269842320    0   0   0
Fe            9.9294888580        3.5106003990        0.0000000000    0   0   0
Fe            8.2745759060        2.3404002660        2.0269842320    0   0   0
Fe            6.6221434227        1.1662680583        4.0250077601
Fe            4.9646927928       -0.0020928680        6.0415400906
Fe            9.9315824741        3.5065096992        4.0257151730
Fe            8.2817784568        2.3294706180        5.9716401208
Fe            7.4471138580        3.5106003990        0.0000000000    0   0   0
Fe            9.1020379530        1.1702001330        0.0000000000    0   0   0
Fe            5.7922009060        2.3404002660        2.0269842320    0   0   0
Fe            7.4471250000        0.0000000000        2.0269842320    0   0   0
Fe            7.4365850293        3.5243585502        4.0381522253
Fe            9.1053911646        1.1654442923        4.0201641369
Fe            5.7933453528        2.3296548661        5.9858041907
Fe           10.7538844424        9.3604508822        6.0272478197
Fe            3.3098147640        5.8510006640        0.0000000000    0   0   0
Fe            1.6549018110        4.6808005310        2.0269842320    0   0   0
Fe            6.6196406700        8.1914009300        0.0000000000    0   0   0
Fe            4.9647277170        7.0212007970        2.0269842320    0   0   0
Fe            3.3069539012        5.8548585599        4.0248764683
Fe           11.5826624754        4.6811411462        6.0415537091
Fe            6.6163857311        8.1948583045        4.0255940749
Fe            4.9574225053        7.0310935937        5.9728803550
Fe            4.1372656700        8.1914009300        0.0000000000    0   0   0
Fe            5.7921897640        5.8510006640        0.0000000000    0   0   0
Fe            2.4823527170        7.0212007970        2.0269842320    0   0   0
Fe            4.1372768110        4.6808005310        2.0269842320    0   0   0
Fe            4.1339289805        8.1961971713        4.0203080703
Fe            5.8015538597        5.8367223541        4.0378802747
Fe           12.4100709059        7.0185580081        6.0271497744
Fe            4.1268848380        4.6854306379        5.9850863244
Fe            8.2745647640        5.8510006640        0.0000000000    0   0   0
Fe            6.6196518110        4.6808005310        2.0269842320    0   0   0
Fe           11.5843906700        8.1914009300        0.0000000000    0   0   0
Fe            9.9294777170        7.0212007970        2.0269842320    0   0   0
Fe            8.2703979224        5.8479711431        4.0272694526
Fe            6.6171017790        4.6808963612        6.1281478786
Fe           11.5828822063        8.1902468284        4.0340318951
Fe            9.9288173006        7.0206918433        6.0180303731
Fe            9.1020156700        8.1914009300        0.0000000000    0   0   0
Fe           10.7569397640        5.8510006640        0.0000000000    0   0   0
Fe            7.4471027170        7.0212007970        2.0269842320    0   0   0
Fe            9.1020268110        4.6808005310        2.0269842320    0   0   0
Fe            9.1001669858        8.1910755703        4.0357093227
Fe           10.7559470292        5.8492434155        4.0358109324
Fe            7.4440706157        7.0306990021        5.9879848027
Fe            9.1093233632        4.6743771250        5.9888226048
N             6.6266014588        4.6828309573        8.2159755267
H             6.6004422612        5.6491891459        8.5514374938
H             5.7923368733        4.1779511798        8.5290952096
H             7.4708659741        4.2088117215        8.5474772741
End final coordinates

     Writing output data file ./Fe_NH3_paper_480c_ESM_p5.save/

     General routines

     Parallel routines

   This run was terminated on:   5:38:58  17Jun2022

   JOB DONE.