     Program PWSCF v.6.4.1 starts on 10Jun2022 at 23:32:11

     K-points division:     npool     =       8
     R & G space division:  proc/nbgrp/npool/nimage =      20
     Waiting for input...
     Reading input from standard input
Warning: card &CELL ignored
Warning: card / ignored

     Current dimensions of program PWSCF are:
     Max number of different atomic species (ntypx) = 10
     Max number of k-points (npk) =  40000
     Max angular momentum in pseudopotentials (lmaxx) =  3

     IMPORTANT: XC functional enforced from input :
     Exchange-correlation      = PBE ( 1  4  3  4 0 0)
     Any further DFT definition will be discarded
     Please, verify this is what you really want

               file Fe.pbe-spn-kjpaw_psl.0.2.1.UPF: wavefunction(s)  3D renormalized

     Parameters for Dispersion (Grimme-D2) Correction:
       atom      VdW radius       C_6

        Fe         2.952        374.666

     bravais-lattice index     =            0
     lattice parameter (alat)  =      18.7640  a.u.
     unit-cell volume          =   16360.3163 (a.u.)^3
     number of atoms/cell      =           64
     number of atomic types    =            1
     number of electrons       =      1024.00
     number of Kohn-Sham states=          614
     kinetic-energy cutoff     =      60.0000  Ry
     charge density cutoff     =     480.0000  Ry
     convergence threshold     =      1.0E-08
     mixing beta               =       0.2000
     number of iterations used =           10  local-TF  mixing
     Exchange-correlation      = PBE ( 1  4  3  4 0 0)
     nstep                     =           50

     Effective Screening Medium Method
     Boundary Conditions: Metal-Slab-Metal
     field strength                   =     0.01 Ry/a.u.
     grid points for fit at edges     =        4

     celldm(1)=  18.764036  celldm(2)=   0.000000  celldm(3)=   0.000000
     celldm(4)=   0.000000  celldm(5)=   0.000000  celldm(6)=   0.000000

     crystal axes: (cart. coord. in units of alat)
               a(1) = (   1.000000   0.000000   0.000000 )
               a(2) = (   0.333330   0.942807   0.000000 )
               a(3) = (   0.000000   0.000000   2.626577 )

     reciprocal axes: (cart. coord. in units 2 pi/alat)
               b(1) = (  1.000000 -0.353551  0.000000 )
               b(2) = (  0.000000  1.060663  0.000000 )
               b(3) = (  0.000000  0.000000  0.380724 )

     PseudoPot. # 1 for Fe read from file:
     ../SSSP/Fe.pbe-spn-kjpaw_psl.0.2.1.UPF
     MD5 check sum: e86618425769142926afa95317d90200
     Pseudo is Projector augmented-wave + core cor, Zval = 16.0
     Generated using "atomic" code by A. Dal Corso v.5.0.99 svn rev. 10869
     Shape of augmentation charge: PSQ
     Using radial grid of 1191 points,  6 beta functions with:
                l(1) =   0
                l(2) =   0
                l(3) =   1
                l(4) =   1
                l(5) =   2
                l(6) =   2
     Q(r) pseudized with 0 coefficients

     atomic species   valence    mass     pseudopotential
        Fe            16.00    55.84500     Fe( 1.00)

     Starting magnetic structure
     atomic species   magnetization
        Fe           0.100

     No symmetry found

   Cartesian axes

     site n.     atom                  positions (alat units)
         1           Fe  tau(   1) = (   0.1666663   0.1178509   0.0000000  )
         2           Fe  tau(   2) = (   0.0000000   0.0000000   0.2041376  )
         3           Fe  tau(   3) = (   0.4999989   0.3535526   0.0000000  )
         4           Fe  tau(   4) = (   0.3333326   0.2357017   0.2041376  )
         5           Fe  tau(   5) = (   0.1666883   0.1178565   0.4055485  )
         6           Fe  tau(   6) = (   0.3333688   0.9428184   0.6047447  )
         7           Fe  tau(   7) = (   0.5000206   0.3535572   0.4055456  )
         8           Fe  tau(   8) = (   0.3333470   0.2357998   0.6047191  )
         9           Fe  tau(   9) = (   0.2499989   0.3535526   0.0000000  )
        10           Fe  tau(  10) = (   0.4166663   0.1178509   0.0000000  )
        11           Fe  tau(  11) = (   0.0833326   0.2357017   0.2041376  )
        12           Fe  tau(  12) = (   0.2500000   0.0000000   0.2041376  )
        13           Fe  tau(  13) = (   0.2500056   0.3535711   0.4054970  )
        14           Fe  tau(  14) = (   0.4166800   0.1178886   0.4055435  )
        15           Fe  tau(  15) = (   0.0833671   0.2357290   0.6047215  )
        16           Fe  tau(  16) = (   0.2500711   0.0000921   0.6047608  )
        17           Fe  tau(  17) = (   0.6666663   0.1178509   0.0000000  )
        18           Fe  tau(  18) = (   0.5000000   0.0000000   0.2041376  )
        19           Fe  tau(  19) = (   0.9999989   0.3535526   0.0000000  )
        20           Fe  tau(  20) = (   0.8333326   0.2357017   0.2041376  )
        21           Fe  tau(  21) = (   0.6666909   0.1178765   0.4055642  )
        22           Fe  tau(  22) = (   0.5000465   0.0000236   0.6046761  )
        23           Fe  tau(  23) = (   1.0000109   0.3535665   0.4055626  )
        24           Fe  tau(  24) = (   0.8333753   0.2357096   0.6046948  )
        25           Fe  tau(  25) = (   0.7499989   0.3535526   0.0000000  )
        26           Fe  tau(  26) = (   0.9166663   0.1178509   0.0000000  )
        27           Fe  tau(  27) = (   0.5833326   0.2357017   0.2041376  )
        28           Fe  tau(  28) = (   0.7500000   0.0000000   0.2041376  )
        29           Fe  tau(  29) = (   0.7500298   0.3535537   0.4055237  )
        30           Fe  tau(  30) = (   0.9166973   0.1178520   0.4055727  )
        31           Fe  tau(  31) = (   0.5833528   0.2357440   0.6048152  )
        32           Fe  tau(  32) = (   1.0833550   0.9428301   0.6047230  )
        33           Fe  tau(  33) = (   0.3333315   0.5892543   0.0000000  )
        34           Fe  tau(  34) = (   0.1666652   0.4714034   0.2041376  )
        35           Fe  tau(  35) = (   0.6666640   0.8249560   0.0000000  )
        36           Fe  tau(  36) = (   0.4999978   0.7071052   0.2041376  )
        37           Fe  tau(  37) = (   0.3333024   0.5893238   0.4055334  )
        38           Fe  tau(  38) = (   1.1666931   0.4714090   0.6046775  )
        39           Fe  tau(  39) = (   0.6666498   0.8250381   0.4055339  )
        40           Fe  tau(  40) = (   0.4999795   0.7072006   0.6047873  )
        41           Fe  tau(  41) = (   0.4166640   0.8249560   0.0000000  )
        42           Fe  tau(  42) = (   0.5833315   0.5892543   0.0000000  )
        43           Fe  tau(  43) = (   0.2499978   0.7071052   0.2041376  )
        44           Fe  tau(  44) = (   0.4166652   0.4714034   0.2041376  )
        45           Fe  tau(  45) = (   0.4166645   0.8250008   0.4055405  )
        46           Fe  tau(  46) = (   0.5833194   0.5893164   0.4055538  )
        47           Fe  tau(  47) = (   1.2499531   0.7071110   0.6047598  )
        48           Fe  tau(  48) = (   0.4166762   0.4714800   0.6046684  )
        49           Fe  tau(  49) = (   0.8333315   0.5892543   0.0000000  )
        50           Fe  tau(  50) = (   0.6666652   0.4714034   0.2041376  )
        51           Fe  tau(  51) = (   1.1666640   0.8249560   0.0000000  )
        52           Fe  tau(  52) = (   0.9999978   0.7071052   0.2041376  )
        53           Fe  tau(  53) = (   0.8333620   0.5892670   0.4055440  )
        54           Fe  tau(  54) = (   0.6666665   0.4714716   0.6046004  )
        55           Fe  tau(  55) = (   1.1666930   0.8249675   0.4055502  )
        56           Fe  tau(  56) = (   0.9999653   0.7071693   0.6047169  )
        57           Fe  tau(  57) = (   0.9166640   0.8249560   0.0000000  )
        58           Fe  tau(  58) = (   1.0833315   0.5892543   0.0000000  )
        59           Fe  tau(  59) = (   0.7499978   0.7071052   0.2041376  )
        60           Fe  tau(  60) = (   0.9166652   0.4714034   0.2041376  )
        61           Fe  tau(  61) = (   0.9166861   0.8249876   0.4054965  )
        62           Fe  tau(  62) = (   1.0833354   0.5892828   0.4055429  )
        63           Fe  tau(  63) = (   0.7499872   0.7071671   0.6046676  )
        64           Fe  tau(  64) = (   0.9166845   0.4714443   0.6048084  )

     number of k points=    10  Methfessel-Paxton smearing, width (Ry)=  0.0100
                       cart. coord. in units 2pi/alat
        k(    1) = (   0.0000000   0.0000000   0.0000000), wk =   0.0625000
        k(    2) = (   0.0000000   0.2651656   0.0000000), wk =   0.1250000
        k(    3) = (   0.0000000  -0.5303313   0.0000000), wk =   0.0625000
        k(    4) = (   0.2500000  -0.0883878   0.0000000), wk =   0.1250000
        k(    5) = (   0.2500000   0.1767779   0.0000000), wk =   0.1250000
        k(    6) = (   0.2500000  -0.6187190   0.0000000), wk =   0.1250000
        k(    7) = (   0.2500000  -0.3535534   0.0000000), wk =   0.1250000
        k(    8) = (  -0.5000000   0.1767755   0.0000000), wk =   0.0625000
        k(    9) = (  -0.5000000   0.4419412   0.0000000), wk =   0.1250000
        k(   10) = (  -0.5000000  -0.3535558   0.0000000), wk =   0.0625000

     Check: negative core charge=   -0.000039

     Initial potential from superposition of free atoms

     starting charge 1023.97194, renormalised to 1024.00000

     negative rho (up, down):  2.482E-02 2.555E-03
     Starting wfcs are  832 randomized atomic wfcs
     Checking if some PAW data can be deallocated...

     Self-consistent Calculation

     iteration #  1     ecut=    60.00 Ry     beta= 0.20
     Davidson diagonalization with overlap
     c_bands:  2 eigenvalues not converged
     ethr =  1.00E-04,  avg # of iterations = 19.2

     negative rho (up, down):  1.307E-02 3.377E-03

     total energy              =  -21066.12682712 Ry
     Harris-Foulkes estimate   =  -21074.39596134 Ry
     estimated scf accuracy    <     414.90935412 Ry

     total magnetization       =   103.66 Bohr mag/cell
     absolute magnetization    =   104.61 Bohr mag/cell

     iteration #  2     ecut=    60.00 Ry     beta= 0.20
     Davidson diagonalization with overlap
     ethr =  1.00E-02,  avg # of iterations =  1.0

[...]

     Magnetic moment per site:
     atom:    1    charge:   14.2655    magn:    2.6683    constr:    0.0000
     atom:    2    charge:   14.3392    magn:    2.4355    constr:    0.0000
     atom:    3    charge:   14.2654    magn:    2.6683    constr:    0.0000
     atom:    4    charge:   14.3394    magn:    2.4353    constr:    0.0000
     atom:    5    charge:   14.3528    magn:    2.4148    constr:    0.0000
     atom:    6    charge:   14.2787    magn:    2.6417    constr:    0.0000
     atom:    7    charge:   14.3527    magn:    2.4153    constr:    0.0000
     atom:    8    charge:   14.2790    magn:    2.6414    constr:    0.0000
     atom:    9    charge:   14.2656    magn:    2.6683    constr:    0.0000
     atom:   10    charge:   14.2656    magn:    2.6683    constr:    0.0000
     atom:   11    charge:   14.3392    magn:    2.4357    constr:    0.0000
     atom:   12    charge:   14.3393    magn:    2.4354    constr:    0.0000
[...]
     atom:   53    charge:   14.3519    magn:    2.4175    constr:    0.0000
     atom:   54    charge:   14.2802    magn:    2.6417    constr:    0.0000
     atom:   55    charge:   14.3519    magn:    2.4175    constr:    0.0000
     atom:   56    charge:   14.2796    magn:    2.6423    constr:    0.0000
     atom:   57    charge:   14.2656    magn:    2.6685    constr:    0.0000
     atom:   58    charge:   14.2656    magn:    2.6685    constr:    0.0000
     atom:   59    charge:   14.3389    magn:    2.4371    constr:    0.0000
     atom:   60    charge:   14.3389    magn:    2.4372    constr:    0.0000
     atom:   61    charge:   14.3518    magn:    2.4174    constr:    0.0000
     atom:   62    charge:   14.3518    magn:    2.4175    constr:    0.0000
     atom:   63    charge:   14.2798    magn:    2.6423    constr:    0.0000
     atom:   64    charge:   14.2792    magn:    2.6421    constr:    0.0000

     End of self-consistent calculation

 ------ SPIN UP ------------

[...]

 ------ SPIN DOWN ----------

[...]

          k = 0.2500-0.3536 0.0000 (128397 PWs)   bands (ev):

[...]

          k =-0.5000-0.3536 0.0000 (128560 PWs)   bands (ev):

   -87.9734 -87.9733 -87.9651 -87.9651 -87.9389 -87.9389 -87.9388 -87.9388
   -87.9334 -87.9334 -87.9321 -87.9320 -87.9271 -87.9270 -87.9270 -87.9270
   -87.9224 -87.9224 -87.9127 -87.9127 -87.9120 -87.9120 -87.9119 -87.9119
   -87.9100 -87.9100 -87.9100 -87.9100 -87.8885 -87.8885 -87.8883 -87.8883
   -87.8775 -87.8775 -87.8766 -87.8766 -87.8751 -87.8751 -87.8744 -87.8744
   -87.8544 -87.8544 -87.8544 -87.8544 -87.8542 -87.8542 -87.8541 -87.8541
   -87.8534 -87.8534 -87.8534 -87.8534 -87.8534 -87.8534 -87.8534 -87.8534
   -87.8329 -87.8329 -87.8321 -87.8321 -87.8315 -87.8315 -87.8312 -87.8312
   -54.2240 -54.2239 -54.2239 -54.2238 -54.2142 -54.2142 -54.2141 -54.2141
   -54.2122 -54.2121 -54.2079 -54.2079 -54.2058 -54.2058 -54.1991 -54.1991
   -54.1991 -54.1990 -54.1907 -54.1907 -54.1907 -54.1906 -54.1826 -54.1826
   -54.1716 -54.1716 -54.1702 -54.1702 -54.1656 -54.1656 -54.1471 -54.1471
   -54.1432 -54.1432 -54.1343 -54.1343 -54.1343 -54.1342 -54.1328 -54.1327
   -54.1327 -54.1327 -54.1265 -54.1265 -54.1265 -54.1265 -54.1258 -54.1257
   -54.1241 -54.1240 -54.1203 -54.1203 -54.1154 -54.1153 -54.1152 -54.1152
   -54.1120 -54.1120 -54.1105 -54.1104 -54.1104 -54.1104 -54.0738 -54.0738
   -54.0626 -54.0626 -54.0626 -54.0626 -54.0608 -54.0607 -54.0511 -54.0511
   -54.0505 -54.0505 -54.0339 -54.0339 -54.0149 -54.0149 -54.0149 -54.0149
   -54.0144 -54.0144 -54.0138 -54.0138 -54.0040 -54.0040 -54.0039 -54.0039
   -54.0024 -54.0024 -54.0024 -54.0023 -53.9865 -53.9865 -53.9857 -53.9857
   -53.9785 -53.9785 -53.9785 -53.9785 -53.9734 -53.9734 -53.9734 -53.9734
   -53.9730 -53.9730 -53.9615 -53.9615 -53.9615 -53.9615 -53.9583 -53.9582
   -53.9499 -53.9499 -53.9451 -53.9451 -53.9373 -53.9373 -53.9349 -53.9349
   -53.9349 -53.9349 -53.9280 -53.9280 -53.9216 -53.9216 -53.9189 -53.9189
   -53.9130 -53.9130 -53.9114 -53.9114 -53.9070 -53.9070 -53.9070 -53.9069
   -53.9048 -53.9048 -53.9041 -53.9041 -53.9040 -53.9040 -53.8993 -53.8993
   -53.8993 -53.8993 -53.8977 -53.8977 -53.8899 -53.8899 -53.8896 -53.8896
   -53.8859 -53.8859 -53.8852 -53.8852 -53.8842 -53.8842 -53.8807 -53.8807
   -53.8807 -53.8806 -53.8805 -53.8805 -53.8791 -53.8791 -53.8752 -53.8752
   -53.8752 -53.8752 -53.8700 -53.8700 -53.8683 -53.8683 -53.8682 -53.8682
   -53.8678 -53.8678 -53.8678 -53.8678 -53.8582 -53.8582 -53.8532 -53.8532
   -53.8532 -53.8532 -53.8517 -53.8517 -53.8484 -53.8484 -53.8474 -53.8474
    -9.9283  -9.9281  -9.3430  -9.3430  -8.6355  -8.6353  -8.0920  -8.0920
    -7.3399  -7.3398  -7.3398  -7.3398  -6.9311  -6.9309  -6.4908  -6.4908
    -6.4908  -6.4908  -6.4900  -6.4900  -6.3952  -6.3952  -6.3566  -6.3566
    -6.3565  -6.3564  -5.9300  -5.9298  -5.9285  -5.9285  -5.9284  -5.9284
    -5.7193  -5.7193  -5.4600  -5.4599  -5.4259  -5.4259  -5.4258  -5.4257
    -5.3680  -5.3679  -5.3244  -5.3243  -5.3243  -5.3242  -5.1661  -5.1660
    -5.1545  -5.1544  -5.1356  -5.1355  -4.8906  -4.8905  -4.8739  -4.8738
    -4.8738  -4.8738  -4.6550  -4.6548  -4.6041  -4.6040  -4.5533  -4.5532
    -4.4466  -4.4465  -4.3656  -4.3656  -4.3654  -4.3654  -4.3568  -4.3567
    -4.3393  -4.3391  -4.3309  -4.3308  -4.2316  -4.2316  -4.2316  -4.2315
    -4.2265  -4.2264  -4.2264  -4.2263  -4.2201  -4.2200  -4.2199  -4.2199
    -4.0076  -4.0075  -3.9995  -3.9995  -3.8673  -3.8673  -3.8672  -3.8672
    -3.8541  -3.8540  -3.8040  -3.8039  -3.8039  -3.8038  -3.7937  -3.7935
    -3.7880  -3.7879  -3.7671  -3.7670  -3.7669  -3.7669  -3.7335  -3.7335
    -3.7335  -3.7333  -3.7304  -3.7304  -3.7304  -3.7304  -3.7239  -3.7235
    -3.6814  -3.6813  -3.6812  -3.6812  -3.6206  -3.6205  -3.6205  -3.6204
    -3.6204  -3.6203  -3.6203  -3.6202  -3.6160  -3.6159  -3.6013  -3.6010
    -3.5437  -3.5436  -3.4104  -3.4101  -3.3482  -3.3482  -3.3482  -3.3482
    -3.3299  -3.3297  -3.2889  -3.2889  -3.2889  -3.2888  -3.1950  -3.1950
    -3.1656  -3.1656  -3.1655  -3.1655  -3.1475  -3.1475  -3.1105  -3.1103
    -3.1002  -3.1000  -3.0541  -3.0539  -2.9166  -2.9166  -2.9050  -2.9049
    -2.8714  -2.8713  -2.8316  -2.8314  -2.8102  -2.8101  -2.8100  -2.8100
    -2.7980  -2.7977  -2.7498  -2.7498  -2.7113  -2.7113  -2.7112  -2.7112
    -2.6882  -2.6878  -2.4377  -2.4376  -2.3645  -2.3641  -2.3220  -2.3217
    -2.2535  -2.2534  -2.0720  -2.0719  -2.0506  -2.0504  -2.0028  -2.0027
    -1.9313  -1.9312  -1.8919  -1.8918  -1.8918  -1.8916  -1.8139  -1.8139
    -1.8130  -1.8128  -1.7720  -1.7718  -1.7582  -1.7581  -1.6565  -1.6565
    -1.6542  -1.6541  -1.6541  -1.6539  -1.5537  -1.5537  -1.5536  -1.5535
[...]
    -1.3486  -1.3486  -1.3064  -1.3064  -1.2520  -1.2519  -1.1956  -1.1956
    -1.1147  -1.1147  -1.1109  -1.1109  -1.1109  -1.1108  -1.1081  -1.1080
    -1.0915  -1.0915  -1.0647  -1.0647  -1.0542  -1.0542  -1.0541  -1.0540
    -1.0476  -1.0476  -1.0476  -1.0476  -1.0219  -1.0216  -0.9744  -0.9743
    -0.9742  -0.9741  -0.9728  -0.9726  -0.9491  -0.9490  -0.9487  -0.9484
    -0.9427  -0.9425  -0.9117  -0.9117  -0.8993  -0.8992  -0.8777  -0.8777
    -0.8777  -0.8777  -0.8655  -0.8655  -0.8630  -0.8630  -0.8629  -0.8629
    -0.8231  -0.8231  -0.7567  -0.7567  -0.7405  -0.7405  -0.7214  -0.7212
    -0.7107  -0.7106  -0.6766  -0.6766  -0.6766  -0.6765  -0.6750  -0.6750
    -0.6750  -0.6750  -0.6604  -0.6604  -0.6576  -0.6576  -0.6575  -0.6575
    -0.6503  -0.6501  -0.6042  -0.6041  -0.5960  -0.5960  -0.5960  -0.5959
    -0.5813  -0.5811  -0.5726  -0.5725  -0.5725  -0.5725  -0.4832  -0.4830
    -0.4783  -0.4783  -0.4782  -0.4782  -0.2957  -0.2955  -0.2662  -0.2662
    -0.0535  -0.0535  -0.0535  -0.0535   0.0165   0.0166   0.0168   0.0168
     0.0351   0.0352   0.0352   0.0352   0.0557   0.0557

     the Fermi energy is    -2.8223 ev

!    total energy              =  -21072.23931114 Ry
     Harris-Foulkes estimate   =  -21072.23931279 Ry
     estimated scf accuracy    <          7.6E-11 Ry

     total all-electron energy =   -162915.217583 Ry

     The total energy is the sum of the following terms:

     one-electron contribution = -737142.12597799 Ry
     hartree contribution      =  368459.27119025 Ry
     xc contribution           =   -2228.22264549 Ry
     ewald contribution        =  354713.63322277 Ry
     Dispersion Correction     =      -1.37032024 Ry
     one-center paw contrib.   =   -4873.42483130 Ry
     smearing contrib. (-TS)   =       0.00005085 Ry

     total magnetization       =   163.03 Bohr mag/cell
     absolute magnetization    =   169.37 Bohr mag/cell

     convergence has been achieved in  11 iterations

     negative rho (up, down):  2.510E-02 1.791E-02

     Forces acting on atoms (cartesian axes, Ry/au):

     atom    1 type  1   force =     0.00000899    0.00000992    0.00925509
     atom    2 type  1   force =    -0.00000296    0.00001399   -0.00940756
     atom    3 type  1   force =     0.00000047    0.00000401    0.00936118
     atom    4 type  1   force =    -0.00003138   -0.00000649   -0.00940993
     atom    5 type  1   force =     0.00001364   -0.00000465    0.00000136
     atom    6 type  1   force =     0.00000575   -0.00001197    0.00002056
     atom    7 type  1   force =    -0.00000515   -0.00003166    0.00001518
     atom    8 type  1   force =    -0.00000978    0.00000889    0.00000187
     atom    9 type  1   force =    -0.00001295    0.00002213    0.00932811
     atom   10 type  1   force =     0.00001358   -0.00001947    0.00932523
     atom   11 type  1   force =     0.00002570   -0.00007927   -0.00939521
     atom   12 type  1   force =    -0.00006926    0.00005311   -0.00938146
     atom   13 type  1   force =    -0.00000322   -0.00000008   -0.00000982
     atom   14 type  1   force =     0.00000302    0.00000218    0.00000339
     atom   15 type  1   force =     0.00002140    0.00000641   -0.00002631
     atom   16 type  1   force =     0.00002021    0.00001408    0.00001971
     atom   17 type  1   force =     0.00000101   -0.00000699    0.00931429
     atom   18 type  1   force =     0.00000842    0.00000015   -0.00941669
     atom   19 type  1   force =     0.00000791   -0.00000363    0.00931373
     atom   20 type  1   force =     0.00008841   -0.00011318   -0.00937079
     atom   21 type  1   force =    -0.00002205    0.00000398    0.00000639
     atom   22 type  1   force =    -0.00000059   -0.00002602    0.00000477
     atom   23 type  1   force =    -0.00000206    0.00001737    0.00000747
     atom   24 type  1   force =     0.00000805   -0.00002361   -0.00002755
     atom   25 type  1   force =     0.00000361   -0.00000239    0.00936601
     atom   26 type  1   force =     0.00000163   -0.00000118    0.00925126
     atom   27 type  1   force =     0.00003550   -0.00007582   -0.00939576
     atom   28 type  1   force =     0.00007745   -0.00004438   -0.00939465
     atom   29 type  1   force =    -0.00000110   -0.00000433    0.00000024
     atom   30 type  1   force =     0.00000743   -0.00001558   -0.00000436
     atom   31 type  1   force =    -0.00002215   -0.00002687    0.00006183
     atom   32 type  1   force =    -0.00002518   -0.00002063   -0.00002364
     atom   33 type  1   force =    -0.00000630    0.00000164    0.00931655
     atom   34 type  1   force =     0.00000838   -0.00000023   -0.00941788
     atom   35 type  1   force =     0.00000305    0.00000843    0.00931592
     atom   36 type  1   force =    -0.00008454    0.00012963   -0.00937629
     atom   37 type  1   force =    -0.00001180    0.00000232   -0.00000257
     atom   38 type  1   force =     0.00001765   -0.00001473    0.00000140
     atom   39 type  1   force =     0.00000087    0.00000770   -0.00000172
     atom   40 type  1   force =    -0.00001350    0.00001408    0.00001927
     atom   41 type  1   force =     0.00000001    0.00000234    0.00924359
     atom   42 type  1   force =    -0.00000190    0.00000659    0.00936953
     atom   43 type  1   force =    -0.00001813    0.00008881   -0.00938215
     atom   44 type  1   force =    -0.00006973    0.00007049   -0.00940098
     atom   45 type  1   force =    -0.00000019   -0.00000230    0.00001556
     atom   46 type  1   force =    -0.00000617    0.00000283    0.00000158
     atom   47 type  1   force =    -0.00002793   -0.00001635    0.00001703
     atom   48 type  1   force =    -0.00001978   -0.00001680   -0.00002070
     atom   49 type  1   force =    -0.00000234    0.00000124    0.00936341
     atom   50 type  1   force =     0.00000656    0.00000166   -0.00940324
     atom   51 type  1   force =    -0.00000979   -0.00000428    0.00925472
     atom   52 type  1   force =     0.00002850    0.00003488   -0.00940959
     atom   53 type  1   force =     0.00002542   -0.00000852    0.00001264
     atom   54 type  1   force =    -0.00000913    0.00000241   -0.00002072
     atom   55 type  1   force =    -0.00000522   -0.00001652    0.00000216
     atom   56 type  1   force =    -0.00001496    0.00000918    0.00000217
     atom   57 type  1   force =    -0.00001513    0.00001967    0.00932775
     atom   58 type  1   force =     0.00001565   -0.00001930    0.00932450
     atom   59 type  1   force =    -0.00003346    0.00009670   -0.00940040
     atom   60 type  1   force =     0.00007175   -0.00005128   -0.00939621
     atom   61 type  1   force =    -0.00000252    0.00000325   -0.00001010
     atom   62 type  1   force =    -0.00000600   -0.00000688    0.00000046
     atom   63 type  1   force =     0.00001247    0.00001031   -0.00002122
     atom   64 type  1   force =     0.00002384    0.00000501    0.00005794

     Total force =     0.000160     Total SCF correction =     0.000049
     SCF correction compared to forces is large: reduce conv_thr to get better values

     bfgs converged in  11 scf cycles and  10 bfgs steps
     (criteria: energy <  7.3E-07 Ry, force <  3.9E-04 Ry/Bohr)

     End of BFGS Geometry Optimization

     Final energy   =  -21072.2393111404 Ry
Begin final coordinates

ATOMIC_POSITIONS (angstrom)
Fe       1.654912953   1.170200133   0.000000000    0   0   0
Fe       0.000000000   0.000000000   2.026984232    0   0   0
Fe       4.964738858   3.510600399   0.000000000    0   0   0
Fe       3.309825906   2.340400266   2.026984232    0   0   0
Fe       1.654833134   1.170294577   4.028185482
Fe       3.309871844   9.361851104   6.007347978
Fe       4.964858260   3.510918029   4.027842147
Fe       3.310313012   2.340708485   6.007716510
Fe       2.482363858   3.510600399   0.000000000    0   0   0
Fe       4.137287953   1.170200133   0.000000000    0   0   0
Fe       0.827450906   2.340400266   2.026984232    0   0   0
Fe       2.482375000   0.000000000   2.026984232    0   0   0
Fe       2.482483240   3.510661157   4.028071171
Fe       4.137327461   1.170374559   4.027927646
Fe       0.827760404   2.340500860   6.008146894
Fe       2.482393255   0.000401600   6.007865390
Fe       6.619662953   1.170200133   0.000000000    0   0   0
Fe       4.964750000   0.000000000   2.026984232    0   0   0
Fe       9.929488858   3.510600399   0.000000000    0   0   0
Fe       8.274575906   2.340400266   2.026984232    0   0   0
Fe       6.620119067   1.169953398   4.027987342
Fe       4.964822025   0.000367599   6.007327406
Fe       9.929811942   3.510260571   4.027988153
Fe       8.274954527   2.340263479   6.008218476
Fe       7.447113858   3.510600399   0.000000000    0   0   0
Fe       9.102037953   1.170200133   0.000000000    0   0   0
Fe       5.792200906   2.340400266   2.026984232    0   0   0
Fe       7.447125000   0.000000000   2.026984232    0   0   0
Fe       7.447449113   3.510388987   4.027977104
Fe       9.102227377   1.170184492   4.028060170
Fe       5.792731256   2.340740828   6.007058948
Fe      10.757095887   9.361582863   6.008140090
Fe       3.309814764   5.851000664   0.000000000    0   0   0
Fe       1.654901811   4.680800531   2.026984232    0   0   0
Fe       6.619640670   8.191400930   0.000000000    0   0   0
Fe       4.964727717   7.021200797   2.026984232    0   0   0
Fe       3.309766106   5.851444896   4.028071674
Fe      11.584407034   4.681085781   6.007355127
Fe       6.619454496   8.191771347   4.028072090
Fe       4.964626505   7.021756255   6.007794901
Fe       4.137265670   8.191400930   0.000000000    0   0   0
Fe       5.792189764   5.851000664   0.000000000    0   0   0
Fe       2.482352717   7.021200797   2.026984232    0   0   0
Fe       4.137276811   4.680800531   2.026984232    0   0   0
Fe       4.137175465   8.191763122   4.027925740
Fe       5.792072426   5.851425483   4.027958854
Fe      12.411860607   7.021530019   6.007891986
Fe       4.137552857   4.681328629   6.007723671
Fe       8.274564764   5.851000664   0.000000000    0   0   0
Fe       6.619651811   4.680800531   2.026984232    0   0   0
Fe      11.584390670   8.191400930   0.000000000    0   0   0
Fe       9.929477717   7.021200797   2.026984232    0   0   0
Fe       8.274471318   5.851159157   4.027846900
Fe       6.619803455   4.681005799   6.007247564
Fe      11.584564164   8.191659719   4.028193864
Fe       9.929421543   7.021077057   6.007681622
Fe       9.102015670   8.191400930   0.000000000    0   0   0
Fe      10.756939764   5.851000664   0.000000000    0   0   0
Fe       7.447102717   7.021200797   2.026984232    0   0   0
Fe       9.102026811   4.680800531   2.026984232    0   0   0
Fe       9.102143039   8.191476100   4.028066561
Fe      10.757006964   5.851175728   4.027933452
Fe       7.446911280   7.021377491   6.007708042
Fe       9.101917499   4.680667383   6.007082351
End final coordinates

     Writing output data file Fe_paper_480c_ESM_p25.save/

     General routines

     Parallel routines

   This run was terminated on:  22:18: 5  11Jun2022

   JOB DONE.