     Program PWSCF v.6.4.1 starts on 15Jun2022 at 15: 7:35

     K-points division:     npool     =       8
     R & G space division:  proc/nbgrp/npool/nimage =      20
     Waiting for input...
     Reading input from standard input
Warning: card &CELL ignored
Warning: card / ignored

     Current dimensions of program PWSCF are:
     Max number of different atomic species (ntypx) = 10
     Max number of k-points (npk) =  40000
     Max angular momentum in pseudopotentials (lmaxx) =  3

     IMPORTANT: XC functional enforced from input :
     Exchange-correlation      = PBE ( 1  4  3  4 0 0)
     Any further DFT definition will be discarded
     Please, verify this is what you really want

               file Fe.pbe-spn-kjpaw_psl.0.2.1.UPF: wavefunction(s)  3D renormalized

     Parameters for Dispersion (Grimme-D2) Correction:
       atom      VdW radius       C_6

        Fe         2.952        374.666
        N          2.640         42.670
        H          1.892          4.857

     bravais-lattice index     =            0
     lattice parameter (alat)  =      18.7640  a.u.
     unit-cell volume          =   16360.3163 (a.u.)^3
     number of atoms/cell      =           68
     number of atomic types    =            3
     number of electrons       =      1032.00
     number of Kohn-Sham states=          619
     kinetic-energy cutoff     =      60.0000  Ry
     charge density cutoff     =     480.0000  Ry
     convergence threshold     =      1.0E-08
     mixing beta               =       0.2000
     number of iterations used =           10  local-TF  mixing
     Exchange-correlation      = PBE ( 1  4  3  4 0 0)
     nstep                     =           50

     Effective Screening Medium Method
     Boundary Conditions: Metal-Slab-Metal
     field strength                   =    -0.02 Ry/a.u.
     grid points for fit at edges     =        4

     celldm(1)=  18.764036  celldm(2)=   0.000000  celldm(3)=   0.000000
     celldm(4)=   0.000000  celldm(5)=   0.000000  celldm(6)=   0.000000

     crystal axes: (cart. coord. in units of alat)
               a(1) = (   1.000000   0.000000   0.000000 )
               a(2) = (   0.333330   0.942807   0.000000 )
               a(3) = (   0.000000   0.000000   2.626577 )

     reciprocal axes: (cart. coord. in units 2 pi/alat)
               b(1) = (  1.000000 -0.353551  0.000000 )
               b(2) = (  0.000000  1.060663  0.000000 )
               b(3) = (  0.000000  0.000000  0.380724 )

     PseudoPot. # 1 for Fe read from file:
     ../../SSSP/Fe.pbe-spn-kjpaw_psl.0.2.1.UPF
     MD5 check sum: e86618425769142926afa95317d90200
     Pseudo is Projector augmented-wave + core cor, Zval = 16.0
     Generated using "atomic" code by A. Dal Corso v.5.0.99 svn rev. 10869
     Shape of augmentation charge: PSQ
     Using radial grid of 1191 points,  6 beta functions with:
                l(1) =   0
                l(2) =   0
                l(3) =   1
                l(4) =   1
                l(5) =   2
                l(6) =   2
     Q(r) pseudized with 0 coefficients

     PseudoPot. # 2 for N  read from file:
     ../../SSSP/N.pbe-n-radius_5.UPF
     MD5 check sum: 16739722b17309cd8fe442a2ace49922
     Pseudo is Ultrasoft + core correction, Zval =  5.0
     Generated using "atomic" code by A. Dal Corso v.5.1
     Using radial grid of 1085 points,  4 beta functions with:
                l(1) =   0
                l(2) =   0
                l(3) =   1
                l(4) =   1
     Q(r) pseudized with 0 coefficients

     PseudoPot. # 3 for H  read from file:
     ../../SSSP/H.pbe-rrkjus_psl.1.0.0.UPF
     MD5 check sum: f52b6d4d1c606e5624b1dc7b2218f220
     Pseudo is Ultrasoft, Zval =  1.0
     Generated using "atomic" code by A. Dal Corso v.5.1
     Using radial grid of  929 points,  2 beta functions with:
                l(1) =   0
                l(2) =   0
     Q(r) pseudized with 0 coefficients

     atomic species   valence    mass     pseudopotential
        Fe            16.00    55.84500     Fe( 1.00)
        N              5.00    14.00700     N ( 1.00)
        H              1.00     1.00800     H ( 1.00)

     Starting magnetic structure
     atomic species   magnetization
        Fe           0.100
        N            0.100
        H            0.100

     No symmetry found

   Cartesian axes

     site n.     atom                  positions (alat units)
         1           Fe  tau(   1) = (   0.1666663   0.1178509   0.0000000  )
         2           Fe  tau(   2) = (   0.0000000   0.0000000   0.2041376  )
         3           Fe  tau(   3) = (   0.4999989   0.3535526   0.0000000  )
         4           Fe  tau(   4) = (   0.3333326   0.2357017   0.2041376  )
         5           Fe  tau(   5) = (   0.1661858   0.1176809   0.4050825  )
         6           Fe  tau(   6) = (   0.3331490   0.9440172   0.6055477  )
         7           Fe  tau(   7) = (   0.4997133   0.3541973   0.4041387  )
         8           Fe  tau(   8) = (   0.3332716   0.2346919   0.6040914  )
         9           Fe  tau(   9) = (   0.2499989   0.3535526   0.0000000  )
        10           Fe  tau(  10) = (   0.4166663   0.1178509   0.0000000  )
        11           Fe  tau(  11) = (   0.0833326   0.2357017   0.2041376  )
        12           Fe  tau(  12) = (   0.2500000   0.0000000   0.2041376  )
        13           Fe  tau(  13) = (   0.2500270   0.3534562   0.4056552  )
        14           Fe  tau(  14) = (   0.4160382   0.1174167   0.4047641  )
        15           Fe  tau(  15) = (   0.0822905   0.2361031   0.6033394  )
        16           Fe  tau(  16) = (   0.2498857  -0.0000716   0.6044957  )
        17           Fe  tau(  17) = (   0.6666663   0.1178509   0.0000000  )
        18           Fe  tau(  18) = (   0.5000000   0.0000000   0.2041376  )
        19           Fe  tau(  19) = (   0.9999989   0.3535526   0.0000000  )
        20           Fe  tau(  20) = (   0.8333326   0.2357017   0.2041376  )
        21           Fe  tau(  21) = (   0.6671839   0.1173630   0.4041374  )
        22           Fe  tau(  22) = (   0.4990299   0.0002799   0.6040386  )
        23           Fe  tau(  23) = (   1.0002631   0.3527942   0.4039660  )
        24           Fe  tau(  24) = (   0.8341795   0.2345333   0.6132676  )
        25           Fe  tau(  25) = (   0.7499989   0.3535526   0.0000000  )
        26           Fe  tau(  26) = (   0.9166663   0.1178509   0.0000000  )
        27           Fe  tau(  27) = (   0.5833326   0.2357017   0.2041376  )
        28           Fe  tau(  28) = (   0.7500000   0.0000000   0.2041376  )
        29           Fe  tau(  29) = (   0.7499771   0.3535160   0.4073037  )
        30           Fe  tau(  30) = (   0.9158741   0.1187739   0.4083241  )
        31           Fe  tau(  31) = (   0.5792775   0.2328300   0.5974008  )
        32           Fe  tau(  32) = (   1.0838684   0.9442409   0.6033182  )
        33           Fe  tau(  33) = (   0.3333315   0.5892543   0.0000000  )
        34           Fe  tau(  34) = (   0.1666652   0.4714034   0.2041376  )
        35           Fe  tau(  35) = (   0.6666640   0.8249560   0.0000000  )
        36           Fe  tau(  36) = (   0.4999978   0.7071052   0.2041376  )
        37           Fe  tau(  37) = (   0.3338635   0.5895038   0.4055621  )
        38           Fe  tau(  38) = (   1.1668133   0.4715240   0.6035207  )
        39           Fe  tau(  39) = (   0.6663351   0.8245919   0.4050747  )
        40           Fe  tau(  40) = (   0.5010598   0.7065788   0.6055205  )
        41           Fe  tau(  41) = (   0.4166640   0.8249560   0.0000000  )
        42           Fe  tau(  42) = (   0.5833315   0.5892543   0.0000000  )
        43           Fe  tau(  43) = (   0.2499978   0.7071052   0.2041376  )
        44           Fe  tau(  44) = (   0.4166652   0.4714034   0.2041376  )
        45           Fe  tau(  45) = (   0.4164874   0.8248740   0.4053169  )
        46           Fe  tau(  46) = (   0.5839274   0.5882228   0.4083075  )
        47           Fe  tau(  47) = (   1.2489553   0.7063733   0.6056608  )
        48           Fe  tau(  48) = (   0.4181887   0.4714441   0.6033253  )
        49           Fe  tau(  49) = (   0.8333315   0.5892543   0.0000000  )
        50           Fe  tau(  50) = (   0.6666652   0.4714034   0.2041376  )
        51           Fe  tau(  51) = (   1.1666640   0.8249560   0.0000000  )
        52           Fe  tau(  52) = (   0.9999978   0.7071052   0.2041376  )
        53           Fe  tau(  53) = (   0.8327152   0.5897474   0.4039630  )
        54           Fe  tau(  54) = (   0.6658720   0.4725219   0.6132366  )
        55           Fe  tau(  55) = (   1.1670623   0.8254012   0.4055725  )
        56           Fe  tau(  56) = (   1.0001813   0.7072001   0.6035878  )
        57           Fe  tau(  57) = (   0.9166640   0.8249560   0.0000000  )
        58           Fe  tau(  58) = (   1.0833315   0.5892543   0.0000000  )
        59           Fe  tau(  59) = (   0.7499978   0.7071052   0.2041376  )
        60           Fe  tau(  60) = (   0.9166652   0.4714034   0.2041376  )
        61           Fe  tau(  61) = (   0.9166011   0.8250195   0.4056626  )
        62           Fe  tau(  62) = (   1.0839218   0.5896779   0.4045371  )
        63           Fe  tau(  63) = (   0.7500297   0.7059832   0.6033430  )
        64           Fe  tau(  64) = (   0.9208697   0.4743691   0.5973551  )
        65           N   tau(  65) = (   0.7500242   0.3535505   0.7526563  )
        66           H   tau(  66) = (   0.8164331   0.4005998   0.8170145  )
        67           H   tau(  67) = (   0.6836738   0.3065801   0.8171320  )
        68           H   tau(  68) = (   0.4576562   0.8539696   0.6985733  )

     number of k points=    10  Methfessel-Paxton smearing, width (Ry)=  0.0100
                       cart. coord. in units 2pi/alat
        k(    1) = (   0.0000000   0.0000000   0.0000000), wk =   0.0625000
        k(    2) = (   0.0000000   0.2651656   0.0000000), wk =   0.1250000
        k(    3) = (   0.0000000  -0.5303313   0.0000000), wk =   0.0625000
        k(    4) = (   0.2500000  -0.0883878   0.0000000), wk =   0.1250000
        k(    5) = (   0.2500000   0.1767779   0.0000000), wk =   0.1250000
        k(    6) = (   0.2500000  -0.6187190   0.0000000), wk =   0.1250000
        k(    7) = (   0.2500000  -0.3535534   0.0000000), wk =   0.1250000
        k(    8) = (  -0.5000000   0.1767755   0.0000000), wk =   0.0625000
        k(    9) = (  -0.5000000   0.4419412   0.0000000), wk =   0.1250000
        k(   10) = (  -0.5000000  -0.3535558   0.0000000), wk =   0.0625000

     Check: negative core charge=   -0.000039

     Initial potential from superposition of free atoms

     starting charge 1031.97191, renormalised to 1032.00000

     negative rho (up, down):  2.435E-02 2.535E-03
     Starting wfcs are  839 randomized atomic wfcs
     Checking if some PAW data can be deallocated...

     Self-consistent Calculation

     iteration #  1     ecut=    60.00 Ry     beta= 0.20
     Davidson diagonalization with overlap
     ethr =  1.00E-04,  avg # of iterations = 18.0

     negative rho (up, down):  1.500E-02 3.162E-03

[...]
     atom:   62    charge:   12.6094    magn:    2.1578    constr:    0.0000
     atom:   63    charge:   12.6216    magn:    2.3819    constr:    0.0000
     atom:   64    charge:   12.6324    magn:    2.3341    constr:    0.0000
     atom:   65    charge:    1.3508    magn:   -0.0035    constr:    0.0000
     atom:   66    charge:    0.4418    magn:    0.0085    constr:    0.0000
     atom:   67    charge:    0.4437    magn:    0.0084    constr:    0.0000
     atom:   68    charge:    0.3557    magn:   -0.0206    constr:    0.0000

     End of self-consistent calculation

 ------ SPIN UP ------------

[...]

 ------ SPIN DOWN ----------

[...]

          k = 0.2500-0.3536 0.0000 (128397 PWs)   bands (ev):

[...]

          k =-0.5000-0.3536 0.0000 (128560 PWs)   bands (ev):

   -97.5262 -97.5229 -97.3138 -97.3123 -97.2766 -97.2689 -97.2689 -97.2602
   -97.2451 -97.2447 -97.2364 -97.2362 -97.2293 -97.2276 -97.2222 -97.2207
   -97.2173 -97.2141 -97.2135 -97.2123 -97.2087 -97.2054 -97.2040 -97.1999
   -97.1996 -97.1989 -97.1981 -97.1978 -97.1951 -97.1932 -97.1898 -97.1895
   -97.1889 -97.1790 -97.1751 -97.1743 -97.1698 -97.1626 -97.1569 -97.1557
   -97.1548 -97.1532 -97.1514 -97.1502 -97.1496 -97.1473 -97.1460 -97.1345
   -97.1321 -97.1303 -97.1299 -97.1296 -97.1276 -97.1275 -97.1270 -97.1227
   -97.1218 -97.1199 -97.1183 -97.1115 -97.1086 -97.1054 -97.1035 -97.1002
   -63.8512 -63.8340 -63.6442 -63.6357 -63.5721 -63.5542 -63.5461 -63.5415
   -63.5293 -63.5278 -63.5159 -63.5152 -63.5147 -63.5106 -63.5059 -63.5037
   -63.5026 -63.5009 -63.5007 -63.4994 -63.4959 -63.4926 -63.4881 -63.4858
   -63.4849 -63.4835 -63.4806 -63.4794 -63.4759 -63.4717 -63.4670 -63.4623
   -63.4618 -63.4557 -63.4529 -63.4512 -63.4492 -63.4444 -63.4417 -63.4402
   -63.4383 -63.4316 -63.4283 -63.4270 -63.4268 -63.4258 -63.4254 -63.4211
   -63.4173 -63.4140 -63.4128 -63.4089 -63.4065 -63.4059 -63.4047 -63.4010
   -63.3994 -63.3988 -63.3987 -63.3969 -63.3950 -63.3927 -63.3917 -63.3893
   -63.3803 -63.3753 -63.3675 -63.3669 -63.3662 -63.3618 -63.3587 -63.3568
   -63.3507 -63.3468 -63.3444 -63.3395 -63.3361 -63.3311 -63.3308 -63.3231
   -63.3214 -63.3158 -63.3130 -63.3092 -63.3087 -63.3066 -63.3062 -63.3052
   -63.3035 -63.3015 -63.2968 -63.2962 -63.2938 -63.2927 -63.2907 -63.2847
   -63.2838 -63.2799 -63.2798 -63.2755 -63.2755 -63.2729 -63.2712 -63.2690
   -63.2605 -63.2596 -63.2570 -63.2557 -63.2540 -63.2533 -63.2514 -63.2474
   -63.2453 -63.2441 -63.2419 -63.2411 -63.2391 -63.2366 -63.2344 -63.2319
   -63.2317 -63.2308 -63.2308 -63.2280 -63.2270 -63.2265 -63.2213 -63.2196
   -63.2179 -63.2171 -63.2152 -63.2140 -63.2097 -63.2072 -63.2045 -63.1995
   -63.1992 -63.1970 -63.1954 -63.1930 -63.1928 -63.1922 -63.1915 -63.1908
   -63.1886 -63.1880 -63.1874 -63.1859 -63.1856 -63.1856 -63.1846 -63.1826
   -63.1793 -63.1786 -63.1759 -63.1719 -63.1710 -63.1694 -63.1692 -63.1684
   -63.1656 -63.1651 -63.1630 -63.1624 -63.1621 -63.1608 -63.1607 -63.1598
   -63.1587 -63.1583 -63.1563 -63.1548 -63.1545 -63.1536 -63.1509 -63.1499
   -63.1483 -63.1468 -63.1466 -63.1438 -63.1413 -63.1409 -63.1395 -63.1380
   -63.1360 -63.1358 -63.1351 -63.1338 -63.1334 -63.1313 -63.1280 -63.1265
   -29.0590 -19.9617 -19.3400 -19.2009 -18.8568 -18.6253 -18.5768 -18.1952
   -17.8993 -17.4156 -17.4036 -17.0231 -16.6654 -16.6194 -16.6132 -16.5572
   -16.1970 -16.1756 -15.9373 -15.7747 -15.7684 -15.7653 -15.7470 -15.7248
   -15.6989 -15.6468 -15.6412 -15.6360 -15.6329 -15.5211 -15.3980 -15.2223
   -15.2168 -15.2074 -15.1998 -15.1500 -15.0974 -14.9976 -14.9269 -14.7453
   -14.7304 -14.7115 -14.6975 -14.6946 -14.6459 -14.6432 -14.6161 -14.6085
   -14.5917 -14.5684 -14.5227 -14.4459 -14.4452 -14.4289 -14.4262 -14.3930
   -14.3420 -14.1818 -14.1682 -14.1662 -14.1619 -14.1514 -14.1106 -13.9392
   -13.8982 -13.8863 -13.8536 -13.8380 -13.8344 -13.7501 -13.7275 -13.6642
   -13.6510 -13.6495 -13.6338 -13.6335 -13.6300 -13.6208 -13.6191 -13.6172
   -13.5991 -13.5573 -13.5365 -13.5361 -13.5206 -13.5163 -13.5152 -13.5143
   -13.5106 -13.4943 -13.4929 -13.4369 -13.4012 -13.3171 -13.2993 -13.2782
   -13.2768 -13.1822 -13.1716 -13.1692 -13.1577 -13.1405 -13.1294 -13.1254
   -13.1176 -13.1163 -13.1007 -13.0955 -13.0886 -13.0819 -13.0811 -13.0744
   -13.0613 -13.0597 -13.0558 -13.0435 -13.0337 -13.0293 -13.0254 -13.0221
   -13.0146 -13.0115 -13.0069 -13.0036 -12.9898 -12.9725 -12.9665 -12.9605
   -12.9341 -12.9296 -12.9212 -12.9175 -12.9149 -12.9053 -12.9025 -12.9020
   -12.8986 -12.8976 -12.8894 -12.8799 -12.8508 -12.8354 -12.8090 -12.7279
   -12.6998 -12.6564 -12.6548 -12.6516 -12.6422 -12.6330 -12.6019 -12.5978
   -12.5706 -12.5706 -12.5367 -12.4829 -12.4701 -12.4693 -12.4547 -12.4478
   -12.4337 -12.4229 -12.4117 -12.4098 -12.4020 -12.3851 -12.3578 -12.3236
   -12.2385 -12.2169 -12.2092 -12.2024 -12.1500 -12.1473 -12.1251 -12.1230
   -12.1143 -12.1082 -12.1073 -12.1014 -12.0421 -12.0413 -12.0186 -12.0089
   -11.9997 -11.9944 -11.9930 -11.9704 -11.9559 -11.8595 -11.8578 -11.7685
   -11.7013 -11.6942 -11.6617 -11.6144 -11.6090 -11.5385 -11.4826 -11.3754
   -11.3686 -11.3453 -11.3409 -11.3049 -11.2872 -11.2860 -11.2836 -11.2687
   -11.2324 -11.2046 -11.1783 -11.1675 -11.1662 -11.1566 -11.1451 -11.1032
   -11.0878 -11.0756 -11.0580 -11.0506 -11.0431 -10.9977 -10.9947 -10.9701
[...]
   -10.6121 -10.6048 -10.5811 -10.5567 -10.5466 -10.5131 -10.5037 -10.4949
   -10.4512 -10.4459 -10.4261 -10.4127 -10.4034 -10.4011 -10.3954 -10.3947
   -10.3879 -10.3790 -10.3762 -10.3715 -10.3521 -10.3504 -10.3459 -10.3442
   -10.3316 -10.3258 -10.3227 -10.3225 -10.3117 -10.2820 -10.2795 -10.2762
   -10.2631 -10.2611 -10.2586 -10.2540 -10.2446 -10.2417 -10.2388 -10.2221
   -10.2187 -10.2158 -10.2048 -10.2019 -10.1947 -10.1860 -10.1732 -10.1643
   -10.1612 -10.1545 -10.1495 -10.1491 -10.1484 -10.1460 -10.1167 -10.1089
   -10.1087 -10.1010 -10.0574 -10.0342 -10.0311 -10.0299 -10.0249 -10.0082
    -9.9972  -9.9963  -9.9804  -9.9783  -9.9714  -9.9694  -9.9656  -9.9643
    -9.9609  -9.9589  -9.9566  -9.9528  -9.9500  -9.9490  -9.9345  -9.9289
    -9.9201  -9.9042  -9.9033  -9.8977  -9.8969  -9.8903  -9.8852  -9.8829
    -9.8720  -9.8684  -9.8558  -9.8516  -9.8508  -9.7958  -9.7830  -9.7807
    -9.7745  -9.7722  -9.7649  -9.7475  -9.5900  -9.5788  -9.5527  -9.5519
    -9.4926  -9.4854  -9.4107  -9.3684  -9.3405  -9.3396  -9.3152  -9.2834
    -9.2664  -9.2639  -9.2426

     the Fermi energy is   -12.0940 ev

!    total energy              =  -21096.32630470 Ry
     Harris-Foulkes estimate   =  -21096.32630579 Ry
     estimated scf accuracy    <          6.8E-11 Ry

     The total energy is the sum of the following terms:

     one-electron contribution = -745243.34649423 Ry
     hartree contribution      =  372158.66019459 Ry
     xc contribution           =   -2235.67523626 Ry
     ewald contribution        =  359098.87029341 Ry
     Dispersion Correction     =      -1.40070414 Ry
     one-center paw contrib.   =   -4873.43513570 Ry
     smearing contrib. (-TS)   =       0.00077763 Ry

     total magnetization       =   161.20 Bohr mag/cell
     absolute magnetization    =   168.97 Bohr mag/cell

     convergence has been achieved in  25 iterations

     negative rho (up, down):  1.090E-02 1.231E-01

     Forces acting on atoms (cartesian axes, Ry/au):

     atom    1 type  1   force =     0.00048009   -0.00007827    0.00995510
     atom    2 type  1   force =    -0.00126260    0.00170025   -0.00478982
     atom    3 type  1   force =     0.00016088    0.00007586    0.01019449
     atom    4 type  1   force =    -0.00018267    0.00040615   -0.00953259
     atom    5 type  1   force =    -0.00006038   -0.00001815    0.00004934
     atom    6 type  1   force =    -0.00000929   -0.00000317    0.00011347
     atom    7 type  1   force =     0.00000457   -0.00002992   -0.00002446
     atom    8 type  1   force =    -0.00003841    0.00003516   -0.00004417
     atom    9 type  1   force =    -0.00006668   -0.00002513    0.01018782
     atom   10 type  1   force =    -0.00018034   -0.00015694    0.00891272
     atom   11 type  1   force =     0.00013567    0.00022078   -0.01013272
     atom   12 type  1   force =    -0.00013462   -0.00002276   -0.00944585
     atom   13 type  1   force =    -0.00001397   -0.00000685    0.00003653
     atom   14 type  1   force =    -0.00004904   -0.00003196    0.00003212
     atom   15 type  1   force =    -0.00004229   -0.00001618    0.00000993
     atom   16 type  1   force =    -0.00002465   -0.00001243    0.00001804
     atom   17 type  1   force =     0.00016469    0.00015515    0.01019162
     atom   18 type  1   force =     0.00041584   -0.00033111   -0.00946493
     atom   19 type  1   force =    -0.00032957    0.00008115    0.01038506
     atom   20 type  1   force =    -0.00024961    0.00007981   -0.00535096
     atom   21 type  1   force =    -0.00003318    0.00001607   -0.00002794
     atom   22 type  1   force =     0.00001736   -0.00004931   -0.00003946
     atom   23 type  1   force =    -0.00001282    0.00003168   -0.00002161
     atom   24 type  1   force =    -0.00015391    0.00021122    0.00010877
     atom   25 type  1   force =    -0.00001847   -0.00003033    0.00826178
     atom   26 type  1   force =    -0.00002779   -0.00009167    0.00988083
     atom   27 type  1   force =     0.00020143    0.00004770   -0.01036507
     atom   28 type  1   force =     0.00008534   -0.00027796   -0.00893904
     atom   29 type  1   force =    -0.00000615    0.00000057   -0.00021269
     atom   30 type  1   force =     0.00003343   -0.00003908   -0.00014797
     atom   31 type  1   force =    -0.00002689   -0.00002180    0.00012561
     atom   32 type  1   force =     0.00001264    0.00003277    0.00001210
     atom   33 type  1   force =    -0.00022997   -0.00006199    0.00965228
     atom   34 type  1   force =     0.00041384   -0.00036015   -0.00947462
     atom   35 type  1   force =     0.00013212    0.00049622    0.00995410
     atom   36 type  1   force =     0.00109413   -0.00164695   -0.00479899
     atom   37 type  1   force =     0.00008049    0.00000778    0.00003824
     atom   38 type  1   force =     0.00003206   -0.00002573   -0.00003064
     atom   39 type  1   force =    -0.00004181   -0.00005270    0.00005030
     atom   40 type  1   force =    -0.00001687   -0.00000286    0.00012611
     atom   41 type  1   force =    -0.00000543   -0.00000082    0.00711535
     atom   42 type  1   force =    -0.00013270    0.00003881    0.00984028
     atom   43 type  1   force =    -0.00011043    0.00000786   -0.00823768
     atom   44 type  1   force =    -0.00026299    0.00018372   -0.00893034
     atom   45 type  1   force =    -0.00000607   -0.00000321    0.00005652
     atom   46 type  1   force =    -0.00003551    0.00005343   -0.00014323
     atom   47 type  1   force =     0.00005529    0.00004946   -0.00010885
     atom   48 type  1   force =     0.00003602   -0.00000157    0.00003062
     atom   49 type  1   force =     0.00001631   -0.00032484    0.01041506
     atom   50 type  1   force =     0.00005237   -0.00038466   -0.00539136
     atom   51 type  1   force =    -0.00009564   -0.00018823    0.00965618
     atom   52 type  1   force =    -0.00014985    0.00054656   -0.00951389
     atom   53 type  1   force =     0.00001807   -0.00002131   -0.00002304
     atom   54 type  1   force =     0.00014596   -0.00021614    0.00010419
     atom   55 type  1   force =     0.00002957    0.00007438    0.00003303
     atom   56 type  1   force =    -0.00001979    0.00004979   -0.00005133
     atom   57 type  1   force =    -0.00006848   -0.00002392    0.01020430
     atom   58 type  1   force =     0.00017693    0.00008197    0.00886688
     atom   59 type  1   force =     0.00024670    0.00006616   -0.01011211
     atom   60 type  1   force =    -0.00010846   -0.00017352   -0.01010046
     atom   61 type  1   force =    -0.00001777   -0.00000469    0.00003257
     atom   62 type  1   force =     0.00004959    0.00003652    0.00005656
     atom   63 type  1   force =    -0.00002876   -0.00003400    0.00001949
     atom   64 type  1   force =     0.00001318    0.00000843    0.00011404
     atom   65 type  2   force =     0.00000498    0.00000144    0.00005532
     atom   66 type  3   force =    -0.00008776   -0.00006495   -0.00010137
     atom   67 type  3   force =     0.00001503    0.00001489   -0.00008008
     atom   68 type  3   force =     0.00001701    0.00002356    0.00017432

     Total force =     0.000688     Total SCF correction =     0.000016

     bfgs converged in  18 scf cycles and  17 bfgs steps
     (criteria: energy <  7.3E-07 Ry, force <  3.9E-04 Ry/Bohr)

     End of BFGS Geometry Optimization

     Final energy   =  -21096.3263047027 Ry
Begin final coordinates

ATOMIC_POSITIONS (angstrom)
Fe       1.654912953   1.170200133   0.000000000    0   0   0
Fe       0.000000000   0.000000000   2.026984232    0   0   0
Fe       4.964738858   3.510600399   0.000000000    0   0   0
Fe       3.309825906   2.340400266   2.026984232    0   0   0
Fe       1.649644937   1.169183588   4.025455159
Fe       3.308409875   9.372772650   6.021076348
Fe       4.962693213   3.517712903   4.018672645
Fe       3.313094545   2.327870648   6.006609179
Fe       2.482363858   3.510600399   0.000000000    0   0   0
Fe       4.137287953   1.170200133   0.000000000    0   0   0
Fe       0.827450906   2.340400266   2.026984232    0   0   0
Fe       2.482375000   0.000000000   2.026984232    0   0   0
Fe       2.482915974   3.509499601   4.033500194
Fe       4.132498656   1.166804416   4.022613640
Fe       0.815049564   2.341261617   6.002377218
Fe       2.480660351  -0.001311296   6.006189202
Fe       6.619662953   1.170200133   0.000000000    0   0   0
Fe       4.964750000   0.000000000   2.026984232    0   0   0
Fe       9.929488858   3.510600399   0.000000000    0   0   0
Fe       8.274575906   2.340400266   2.026984232    0   0   0
Fe       6.625719382   1.165872756   4.018583857
Fe       4.954225301   0.007226591   6.006724878
Fe       9.931585637   3.502061026   4.016810488
Fe       8.278899207   2.334528537   6.112996777
Fe       7.447113858   3.510600399   0.000000000    0   0   0
Fe       9.102037953   1.170200133   0.000000000    0   0   0
Fe       5.792200906   2.340400266   2.026984232    0   0   0
Fe       7.447125000   0.000000000   2.026984232    0   0   0
Fe       7.446930063   3.510337672   4.051070724
Fe       9.093112461   1.180492711   4.061346800
Fe       5.761439765   2.318478472   5.941534082
Fe      10.763858474   9.377652812   6.001152275
Fe       3.309814764   5.851000664   0.000000000    0   0   0
Fe       1.654901811   4.680800531   2.026984232    0   0   0
Fe       6.619640670   8.191400930   0.000000000    0   0   0
Fe       4.964727717   7.021200797   2.026984232    0   0   0
Fe       3.314260406   5.853728389   4.033177282
Fe      11.581796036   4.683023706   5.999777585
Fe       6.617057316   8.187104875   4.025351881
Fe       4.974859553   7.016147462   6.021536222
Fe       4.137265670   8.191400930   0.000000000    0   0   0
Fe       5.792189764   5.851000664   0.000000000    0   0   0
Fe       2.482352717   7.021200797   2.026984232    0   0   0
Fe       4.137276811   4.680800531   2.026984232    0   0   0
Fe       4.135415742   8.190189266   4.028416806
Fe       5.798774712   5.839413919   4.061127666
Fe      12.401672920   7.013946943   6.030319048
Fe       4.154340969   4.682211455   6.001091494
Fe       8.274564764   5.851000664   0.000000000    0   0   0
Fe       6.619651811   4.680800531   2.026984232    0   0   0
Fe      11.584390670   8.191400930   0.000000000    0   0   0
Fe       9.929477717   7.021200797   2.026984232    0   0   0
Fe       8.267334841   5.855765174   4.016915470
Fe       6.615412582   4.686789779   6.112878487
Fe      11.588425283   8.195016481   4.033178618
Fe       9.930981141   7.018023654   6.000643103
Fe       9.102015670   8.191400930   0.000000000    0   0   0
Fe      10.756939764   5.851000664   0.000000000    0   0   0
Fe       7.447102717   7.021200797   2.026984232    0   0   0
Fe       9.102026811   4.680800531   2.026984232    0   0   0
Fe       9.101684804   8.192264414   4.033779593
Fe      10.761335218   5.854190869   4.020574778
Fe       7.443751842   7.009322203   6.002164946
Fe       9.134689824   4.703668342   5.940002548
N        7.446041180   3.509870257   7.498068460
H        8.099057782   3.971838784   8.152987658
H        6.794323288   3.048726265   8.154736803
H        4.545081016   8.479824231   6.937513268
End final coordinates

     Writing output data file Fe_NH2_H_paper_480c_ESM_pn5.save/

     General routines

     Parallel routines

   This run was terminated on:  22:36:49  17Jun2022

   JOB DONE.