     Program PWSCF v.6.7MaX starts on  8Jul2022 at 17:41:19

     K-points division:     npool     =       8
     R & G space division:  proc/nbgrp/npool/nimage =      32
     Waiting for input...
     Reading input from standard input
Warning: card &CELL ignored
Warning: card / ignored

     Current dimensions of program PWSCF are:
     Max number of different atomic species (ntypx) = 10
     Max number of k-points (npk) =  40000
     Max angular momentum in pseudopotentials (lmaxx) =  3
     file Fe.pbe-spn-kjpaw_psl.0.2.1.UPF: wavefunction(s)  3D renormalized

     IMPORTANT: XC functional enforced from input :
     Exchange-correlation= PBE
                           (   1   4   3   4   0   0   0)
     Any further DFT definition will be discarded
     Please, verify this is what you really want

     Parameters for Dispersion (Grimme-D2) Correction:
       atom      VdW radius       C_6

        Fe         2.952        374.666
        N          2.640         42.670
        H          1.892          4.857

     bravais-lattice index     =            0
     lattice parameter (alat)  =      18.7640  a.u.
     unit-cell volume          =   16360.3161 (a.u.)^3
     number of atoms/cell      =           67
     number of atomic types    =            3
     number of electrons       =      1031.00
     number of Kohn-Sham states=          619
     kinetic-energy cutoff     =      60.0000  Ry
     charge density cutoff     =     480.0000  Ry
     scf convergence threshold =      1.0E-08
     mixing beta               =       0.2000
     number of iterations used =           10  local-TF  mixing
     energy convergence thresh.=      7.3E-07
     force convergence thresh. =      3.9E-04
     Exchange-correlation= PBE
                           (   1   4   3   4   0   0   0)
     nstep                     =           50

     Effective Screening Medium Method
     Boundary Conditions: Metal-Slab-Metal
     field strength                   =     0.00 Ry/a.u.
     grid points for fit at edges     =        4

     celldm(1)=  18.764036  celldm(2)=   0.000000  celldm(3)=   0.000000
     celldm(4)=   0.000000  celldm(5)=   0.000000  celldm(6)=   0.000000

     crystal axes: (cart. coord. in units of alat)
               a(1) = (   1.000000   0.000000   0.000000 )
               a(2) = (   0.333330   0.942807   0.000000 )
               a(3) = (   0.000000   0.000000   2.626577 )

     reciprocal axes: (cart. coord. in units 2 pi/alat)
               b(1) = (  1.000000 -0.353551  0.000000 )
               b(2) = (  0.000000  1.060663  0.000000 )
               b(3) = (  0.000000  0.000000  0.380724 )

     PseudoPot. # 1 for Fe read from file:
     ../../SSSP/Fe.pbe-spn-kjpaw_psl.0.2.1.UPF
     MD5 check sum: e86618425769142926afa95317d90200
     Pseudo is Projector augmented-wave + core cor, Zval = 16.0
     Generated using "atomic" code by A. Dal Corso  v.5.0.99 svn rev. 10869
     Shape of augmentation charge: PSQ
     Using radial grid of 1191 points,  6 beta functions with:
                l(1) =   0
                l(2) =   0
                l(3) =   1
                l(4) =   1
                l(5) =   2
                l(6) =   2
     Q(r) pseudized with 0 coefficients

     PseudoPot. # 2 for N  read from file:
     ../../SSSP/N.pbe-n-radius_5.UPF
     MD5 check sum: 16739722b17309cd8fe442a2ace49922
     Pseudo is Ultrasoft + core correction, Zval =  5.0
     Generated using "atomic" code by A. Dal Corso  v.5.1
     Using radial grid of 1085 points,  4 beta functions with:
                l(1) =   0
                l(2) =   0
                l(3) =   1
                l(4) =   1
     Q(r) pseudized with 0 coefficients

     PseudoPot. # 3 for H  read from file:
     ../../SSSP/H.pbe-rrkjus_psl.1.0.0.UPF
     MD5 check sum: f52b6d4d1c606e5624b1dc7b2218f220
     Pseudo is Ultrasoft, Zval =  1.0
     Generated using "atomic" code by A. Dal Corso  v.5.1
     Using radial grid of  929 points,  2 beta functions with:
                l(1) =   0
                l(2) =   0
     Q(r) pseudized with 0 coefficients

     atomic species   valence    mass     pseudopotential
        Fe            16.00    55.84500     Fe( 1.00)
        N              5.00    14.00700     N ( 1.00)
        H              1.00     1.00800     H ( 1.00)

     Starting magnetic structure
     atomic species   magnetization
        Fe           0.100
        N            0.100
        H            0.100

     No symmetry found

   Cartesian axes

     site n.     atom                  positions (alat units)
         1           Fe  tau(   1) = (   0.1666663   0.1178509   0.0000000  )
         2           Fe  tau(   2) = (   0.0000000   0.0000000   0.2041376  )
         3           Fe  tau(   3) = (   0.4999989   0.3535526   0.0000000  )
         4           Fe  tau(   4) = (   0.3333326   0.2357017   0.2041376  )
         5           Fe  tau(   5) = (   0.1689086   0.1177626   0.4054037  )
         6           Fe  tau(   6) = (   0.3344565   0.9421522   0.6046720  )
         7           Fe  tau(   7) = (   0.5011260   0.3549683   0.4071487  )
         8           Fe  tau(   8) = (   0.3394787   0.2351497   0.6056054  )
         9           Fe  tau(   9) = (   0.2499989   0.3535526   0.0000000  )
        10           Fe  tau(  10) = (   0.4166663   0.1178509   0.0000000  )
        11           Fe  tau(  11) = (   0.0833326   0.2357017   0.2041376  )
        12           Fe  tau(  12) = (   0.2500000   0.0000000   0.2041376  )
        13           Fe  tau(  13) = (   0.2500496   0.3534643   0.4070637  )
        14           Fe  tau(  14) = (   0.4191073   0.1195952   0.4062615  )
        15           Fe  tau(  15) = (   0.0873507   0.2338674   0.6043404  )
        16           Fe  tau(  16) = (   0.2516474   0.0011873   0.6057163  )
        17           Fe  tau(  17) = (   0.6666663   0.1178509   0.0000000  )
        18           Fe  tau(  18) = (   0.5000000   0.0000000   0.2041376  )
        19           Fe  tau(  19) = (   0.9999989   0.3535526   0.0000000  )
        20           Fe  tau(  20) = (   0.8333326   0.2357017   0.2041376  )
        21           Fe  tau(  21) = (   0.6683672   0.1184493   0.4071322  )
        22           Fe  tau(  22) = (   0.5015274   0.0059756   0.6056280  )
        23           Fe  tau(  23) = (   0.9987945   0.3520318   0.4069418  )
        24           Fe  tau(  24) = (   0.8425606   0.2225683   0.6029475  )
        25           Fe  tau(  25) = (   0.7499989   0.3535526   0.0000000  )
        26           Fe  tau(  26) = (   0.9166663   0.1178509   0.0000000  )
        27           Fe  tau(  27) = (   0.5833326   0.2357017   0.2041376  )
        28           Fe  tau(  28) = (   0.7500000   0.0000000   0.2041376  )
        29           Fe  tau(  29) = (   0.7499443   0.3534982   0.4029636  )
        30           Fe  tau(  30) = (   0.9185492   0.1149907   0.4042807  )
        31           Fe  tau(  31) = (   0.5927334   0.2423230   0.6094155  )
        32           Fe  tau(  32) = (   1.0845558   0.9385582   0.6044802  )
        33           Fe  tau(  33) = (   0.3333315   0.5892543   0.0000000  )
        34           Fe  tau(  34) = (   0.1666652   0.4714034   0.2041376  )
        35           Fe  tau(  35) = (   0.6666640   0.8249560   0.0000000  )
        36           Fe  tau(  36) = (   0.4999978   0.7071052   0.2041376  )
        37           Fe  tau(  37) = (   0.3311979   0.5893155   0.4056474  )
        38           Fe  tau(  38) = (   1.1606984   0.4711726   0.6052460  )
        39           Fe  tau(  39) = (   0.6673353   0.8271056   0.4054098  )
        40           Fe  tau(  40) = (   0.4997522   0.7084210   0.6046393  )
        41           Fe  tau(  41) = (   0.4166640   0.8249560   0.0000000  )
        42           Fe  tau(  42) = (   0.5833315   0.5892543   0.0000000  )
        43           Fe  tau(  43) = (   1.2499978   0.7071052   0.2041376  )
        44           Fe  tau(  44) = (   0.4166652   0.4714034   0.2041376  )
        45           Fe  tau(  45) = (   0.4165505   0.8248981   0.4045796  )
        46           Fe  tau(  46) = (   0.5812668   0.5919779   0.4042850  )
        47           Fe  tau(  47) = (   1.2472480   0.7051693   0.6057119  )
        48           Fe  tau(  48) = (   0.4130609   0.4740042   0.6045132  )
        49           Fe  tau(  49) = (   0.8333315   0.5892543   0.0000000  )
        50           Fe  tau(  50) = (   0.6666652   0.4714034   0.2041376  )
        51           Fe  tau(  51) = (   1.1666640   0.8249560   0.0000000  )
        52           Fe  tau(  52) = (   0.9999978   0.7071052   0.2041376  )
        53           Fe  tau(  53) = (   0.8314976   0.5886325   0.4069528  )
        54           Fe  tau(  54) = (   0.6573683   0.4844832   0.6029447  )
        55           Fe  tau(  55) = (   1.1660118   0.8229263   0.4056423  )
        56           Fe  tau(  56) = (   0.9978077   0.7015416   0.6052246  )
        57           Fe  tau(  57) = (   0.9166640   0.8249560   0.0000000  )
        58           Fe  tau(  58) = (   1.0833315   0.5892543   0.0000000  )
        59           Fe  tau(  59) = (   0.7499978   0.7071052   0.2041376  )
        60           Fe  tau(  60) = (   0.9166652   0.4714034   0.2041376  )
        61           Fe  tau(  61) = (   0.9166071   0.8250596   0.4070638  )
        62           Fe  tau(  62) = (   1.0808337   0.5874989   0.4060401  )
        63           Fe  tau(  63) = (   0.7496100   0.7115242   0.6043569  )
        64           Fe  tau(  64) = (   0.9074742   0.4648749   0.6093827  )
        65           N   tau(  65) = (   0.7501474   0.3536613   0.7048691  )
        66           H   tau(  66) = (   0.7502862   0.3537825   0.8083333  )
        67           H   tau(  67) = (   0.4595445   0.8553106   0.6995069  )

     number of k points=    10  Methfessel-Paxton smearing, width (Ry)=  0.0100
                       cart. coord. in units 2pi/alat
        k(    1) = (   0.0000000   0.0000000   0.0000000), wk =   0.0625000
        k(    2) = (   0.0000000   0.2651656   0.0000000), wk =   0.1250000
        k(    3) = (   0.0000000  -0.5303313   0.0000000), wk =   0.0625000
        k(    4) = (   0.2500000  -0.0883878   0.0000000), wk =   0.1250000
        k(    5) = (   0.2500000   0.1767779   0.0000000), wk =   0.1250000
        k(    6) = (   0.2500000  -0.6187190   0.0000000), wk =   0.1250000
        k(    7) = (   0.2500000  -0.3535534   0.0000000), wk =   0.1250000
        k(    8) = (  -0.5000000   0.1767755   0.0000000), wk =   0.0625000
        k(    9) = (  -0.5000000   0.4419412   0.0000000), wk =   0.1250000
        k(   10) = (  -0.5000000  -0.3535558   0.0000000), wk =   0.0625000

     Check: negative core charge=   -0.000039
     Generating pointlists ...
     new r_m :   0.0740 (alat units)  1.3885 (a.u.) for type    1
     new r_m :   0.0427 (alat units)  0.8008 (a.u.) for type    2
     new r_m :   0.0427 (alat units)  0.8008 (a.u.) for type    3

     Initial potential from superposition of free atoms

     starting charge 1030.97192, renormalised to 1031.00000

     negative rho (up, down):  1.345E-02 1.100E-02
     Starting wfcs are  838 randomized atomic wfcs
[...]
   -89.2791 -89.2718 -89.2664 -89.2662 -89.2659 -89.2658 -89.2655 -89.2644
   -89.2643 -89.2635 -89.2617 -89.2606 -89.2436 -89.2433 -89.2427 -89.2404
   -56.2767 -56.2616 -55.9349 -55.9300 -55.7844 -55.7679 -55.7284 -55.7279
   -55.7176 -55.6937 -55.6664 -55.6597 -55.6595 -55.6535 -55.6522 -55.6493
   -55.6479 -55.6463 -55.6411 -55.6389 -55.6353 -55.6349 -55.6339 -55.6308
   -55.6291 -55.6247 -55.6231 -55.6195 -55.6184 -55.6131 -55.6085 -55.6077
   -55.6054 -55.6032 -55.6026 -55.5987 -55.5937 -55.5905 -55.5884 -55.5876
   -55.5868 -55.5818 -55.5804 -55.5756 -55.5732 -55.5706 -55.5684 -55.5676
   -55.5611 -55.5545 -55.5538 -55.5480 -55.5466 -55.5456 -55.5436 -55.5406
   -55.5406 -55.5404 -55.5397 -55.5393 -55.5342 -55.5332 -55.5312 -55.5309
   -55.5295 -55.5293 -55.5223 -55.5203 -55.5160 -55.5124 -55.5089 -55.5067
   -55.5015 -55.4939 -55.4907 -55.4889 -55.4846 -55.4806 -55.4739 -55.4725
   -55.4710 -55.4704 -55.4623 -55.4610 -55.4576 -55.4517 -55.4501 -55.4500
   -55.4443 -55.4432 -55.4415 -55.4382 -55.4378 -55.4331 -55.4310 -55.4301
   -55.4298 -55.4272 -55.4237 -55.4229 -55.4216 -55.4200 -55.4121 -55.4115
   -55.4057 -55.4035 -55.4033 -55.4007 -55.3947 -55.3942 -55.3919 -55.3911
   -55.3896 -55.3889 -55.3872 -55.3856 -55.3846 -55.3826 -55.3811 -55.3769
   -55.3756 -55.3748 -55.3729 -55.3696 -55.3650 -55.3645 -55.3634 -55.3627
   -55.3573 -55.3569 -55.3564 -55.3523 -55.3509 -55.3499 -55.3480 -55.3428
   -55.3422 -55.3414 -55.3383 -55.3369 -55.3349 -55.3345 -55.3325 -55.3323
   -55.3316 -55.3303 -55.3275 -55.3266 -55.3254 -55.3249 -55.3243 -55.3233
   -55.3214 -55.3181 -55.3156 -55.3144 -55.3109 -55.3080 -55.3077 -55.3057
   -55.3048 -55.3025 -55.3024 -55.3018 -55.3008 -55.2998 -55.2994 -55.2987
   -55.2981 -55.2971 -55.2964 -55.2960 -55.2938 -55.2936 -55.2902 -55.2890
   -55.2867 -55.2851 -55.2849 -55.2841 -55.2834 -55.2781 -55.2776 -55.2772
   -55.2758 -55.2741 -55.2730 -55.2727 -55.2707 -55.2688 -55.2668 -55.2662
   -20.5281 -12.0442 -11.3607 -11.3271 -10.8139 -10.7860 -10.3897 -10.0920
    -9.6742  -9.5858  -9.2827  -9.1568  -9.1319  -8.7569  -8.7123  -8.6791
    -8.6440  -8.2893  -8.0881  -7.9169  -7.9076  -7.8956  -7.8757  -7.8644
    -7.8258  -7.7926  -7.7724  -7.7679  -7.7306  -7.7233  -7.5016  -7.3712
    -7.3475  -7.3396  -7.3377  -7.2983  -7.2411  -7.1454  -7.0513  -6.8893
    -6.8695  -6.8656  -6.8351  -6.8315  -6.8022  -6.7822  -6.7410  -6.7268
    -6.7231  -6.6661  -6.6254  -6.5966  -6.5899  -6.5674  -6.5452  -6.5132
    -6.4739  -6.3295  -6.3218  -6.3018  -6.2900  -6.2792  -6.2409  -6.0695
    -6.0371  -6.0147  -6.0013  -5.9848  -5.9726  -5.8906  -5.8692  -5.8511
    -5.8253  -5.8066  -5.7867  -5.7754  -5.7734  -5.7641  -5.7477  -5.7473
    -5.7293  -5.7153  -5.7113  -5.6722  -5.6679  -5.6587  -5.6561  -5.6460
    -5.6379  -5.6199  -5.6072  -5.5613  -5.5330  -5.5156  -5.4379  -5.4302
    -5.4215  -5.3623  -5.3170  -5.3045  -5.2978  -5.2963  -5.2882  -5.2786
    -5.2655  -5.2595  -5.2528  -5.2524  -5.2266  -5.2257  -5.2184  -5.2157
    -5.2099  -5.1995  -5.1898  -5.1806  -5.1786  -5.1748  -5.1628  -5.1571
    -5.1541  -5.1492  -5.1424  -5.1353  -5.1237  -5.1226  -5.1129  -5.1017
    -5.0890  -5.0693  -5.0688  -5.0622  -5.0609  -5.0487  -5.0422  -5.0330
    -5.0318  -5.0315  -5.0021  -4.9992  -4.9938  -4.9431  -4.9264  -4.8696
    -4.8292  -4.8000  -4.7838  -4.7697  -4.7685  -4.7682  -4.7492  -4.7463
    -4.7373  -4.7196  -4.6686  -4.6568  -4.6178  -4.6099  -4.6007  -4.5878
    -4.5851  -4.5721  -4.5682  -4.5386  -4.5265  -4.5243  -4.4903  -4.4765
    -4.3869  -4.3582  -4.3370  -4.3194  -4.3011  -4.2920  -4.2798  -4.2693
    -4.2565  -4.2561  -4.2507  -4.2115  -4.2112  -4.2068  -4.1774  -4.1600
    -4.1524  -4.1478  -4.1469  -4.1147  -4.0940  -3.9406  -3.8793  -3.8692
    -3.8542  -3.7543  -3.7528  -3.7249  -3.5846  -3.5410  -3.4970  -3.4827
    -3.4619  -3.4253  -3.4118  -3.4028  -3.3926  -3.3662  -3.3603  -3.3305
    -3.3184  -3.3103  -3.2986  -3.2575  -3.2351  -3.2090  -3.1971  -3.1856
    -3.1808  -3.1690  -3.1607  -3.1184  -3.1084  -3.1014  -3.0738  -3.0240
[...]
    -2.6781  -2.6749  -2.6360  -2.6301  -2.5970  -2.5850  -2.5733  -2.5602
    -2.5579  -2.5571  -2.5536  -2.5405  -2.5277  -2.5240  -2.5074  -2.5010
    -2.4969  -2.4913  -2.4892  -2.4780  -2.4757  -2.4709  -2.4619  -2.4462
    -2.4368  -2.4336  -2.4297  -2.4122  -2.4027  -2.3954  -2.3899  -2.3845
    -2.3815  -2.3797  -2.3730  -2.3722  -2.3690  -2.3532  -2.3428  -2.3416
    -2.3304  -2.3166  -2.3137  -2.3092  -2.3059  -2.2991  -2.2916  -2.2910
    -2.2845  -2.2639  -2.2570  -2.2504  -2.2173  -2.1992  -2.1933  -2.1849
    -2.1761  -2.1664  -2.1657  -2.1544  -2.1512  -2.1507  -2.1304  -2.1207
    -2.1188  -2.1120  -2.1117  -2.1046  -2.0979  -2.0957  -2.0910  -2.0866
    -2.0814  -2.0775  -2.0738  -2.0577  -2.0524  -2.0442  -2.0413  -2.0368
    -2.0312  -2.0273  -2.0152  -2.0142  -2.0111  -2.0046  -1.9953  -1.9801
    -1.9515  -1.9307  -1.9299  -1.9117  -1.9104  -1.8873  -1.8294  -1.8153
    -1.6987  -1.6982  -1.6953  -1.6779  -1.5574  -1.4926  -1.4798  -1.4717
    -1.4618  -1.4326  -1.4115  -1.4111  -1.3965  -1.3822  -1.3734  -1.2664
    -1.1518  -1.1300  -1.0599

     the Fermi energy is    -4.2298 ev

!    total energy              =  -21094.96241069 Ry
     estimated scf accuracy    <          6.7E-11 Ry
     smearing contrib. (-TS)   =       0.00176428 Ry
     internal energy E=F+TS    =  -21094.96417497 Ry

     The total energy is F=E-TS. E is the sum of the following terms:
     one-electron contribution = -744782.97785704 Ry
     hartree contribution      =  372226.54160206 Ry
     xc contribution           =   -2234.99861285 Ry
     ewald contribution        =  358571.31739451 Ry
     Dispersion Correction     =      -1.39935102 Ry
     one-center paw contrib.   =   -4873.44735063 Ry

     total magnetization       =   160.56 Bohr mag/cell
     absolute magnetization    =   167.33 Bohr mag/cell

     convergence has been achieved in  17 iterations

     negative rho (up, down):  1.187E-02 1.614E-02

     Forces acting on atoms (cartesian axes, Ry/au):

     atom    1 type  1   force =     0.00061714   -0.00022678    0.00911683
     atom    2 type  1   force =     0.00147212   -0.00221045   -0.01351848
     atom    3 type  1   force =    -0.00057063   -0.00032648    0.00920918
     atom    4 type  1   force =     0.00077734    0.00086755   -0.00837861
     atom    5 type  1   force =     0.00000870    0.00000317   -0.00002080
     atom    6 type  1   force =     0.00000135   -0.00000690   -0.00002428
     atom    7 type  1   force =    -0.00002593   -0.00002886   -0.00001651
     atom    8 type  1   force =    -0.00000485    0.00001808   -0.00003173
     atom    9 type  1   force =     0.00001976   -0.00000249    0.00983292
     atom   10 type  1   force =    -0.00018580   -0.00012733    0.00914700
     atom   11 type  1   force =    -0.00020563    0.00138140   -0.00742443
     atom   12 type  1   force =     0.00081165    0.00063489   -0.01168666
     atom   13 type  1   force =     0.00000674    0.00000482   -0.00005625
     atom   14 type  1   force =    -0.00001309   -0.00001294   -0.00000917
     atom   15 type  1   force =     0.00012575    0.00005801   -0.00006742
     atom   16 type  1   force =     0.00003885    0.00002481    0.00001647
     atom   17 type  1   force =    -0.00049113   -0.00041654    0.00915838
     atom   18 type  1   force =     0.00108916    0.00049650   -0.00836998
     atom   19 type  1   force =     0.00053204    0.00036204    0.00929150
     atom   20 type  1   force =     0.00048584   -0.00092777   -0.01107990
     atom   21 type  1   force =    -0.00003455   -0.00001740   -0.00001999
     atom   22 type  1   force =     0.00003005   -0.00001614   -0.00003579
     atom   23 type  1   force =     0.00003083    0.00003270   -0.00001979
     atom   24 type  1   force =    -0.00011721    0.00013631    0.00010919
     atom   25 type  1   force =    -0.00001337   -0.00003724    0.00722194
     atom   26 type  1   force =    -0.00065553    0.00081110    0.01009297
     atom   27 type  1   force =    -0.00009944   -0.00011873   -0.00642345
     atom   28 type  1   force =    -0.00106463    0.00069979   -0.00689323
     atom   29 type  1   force =    -0.00000490   -0.00000197    0.00004911
     atom   30 type  1   force =    -0.00000091   -0.00000972   -0.00003516
     atom   31 type  1   force =    -0.00003160   -0.00002802   -0.00000014
     atom   32 type  1   force =    -0.00010087   -0.00010608   -0.00004016
     atom   33 type  1   force =    -0.00045221    0.00021122    0.00897477
     atom   34 type  1   force =    -0.00062174   -0.00077006   -0.00849300
     atom   35 type  1   force =     0.00001601    0.00064615    0.00914140
     atom   36 type  1   force =    -0.00168209    0.00223485   -0.01348957
     atom   37 type  1   force =    -0.00000327   -0.00001205   -0.00003096
     atom   38 type  1   force =     0.00003465   -0.00000201   -0.00002926
     atom   39 type  1   force =     0.00000703    0.00000107   -0.00002563
     atom   40 type  1   force =    -0.00000407    0.00000064   -0.00003709
     atom   41 type  1   force =     0.00011729    0.00004934    0.00830796
     atom   42 type  1   force =     0.00054982   -0.00085706    0.01018065
     atom   43 type  1   force =    -0.00119281   -0.00075496   -0.01133502
     atom   44 type  1   force =     0.00028792   -0.00122250   -0.00688188
     atom   45 type  1   force =    -0.00000480   -0.00000116   -0.00001594
     atom   46 type  1   force =    -0.00000522   -0.00000410   -0.00003064
     atom   47 type  1   force =    -0.00006975   -0.00005636   -0.00003687
     atom   48 type  1   force =    -0.00013125   -0.00006947   -0.00003766
     atom   49 type  1   force =     0.00053142    0.00036557    0.00936360
     atom   50 type  1   force =    -0.00064977    0.00066425   -0.01108400
     atom   51 type  1   force =     0.00007677   -0.00050916    0.00896446
     atom   52 type  1   force =    -0.00093301   -0.00027344   -0.00847172
     atom   53 type  1   force =     0.00004459    0.00001459   -0.00001510
     atom   54 type  1   force =     0.00009122   -0.00016010    0.00011087
     atom   55 type  1   force =    -0.00001049   -0.00000258   -0.00002878
     atom   56 type  1   force =     0.00002186    0.00002750   -0.00001899
     atom   57 type  1   force =    -0.00004587   -0.00001246    0.00982873
     atom   58 type  1   force =    -0.00003532   -0.00001271    0.00933628
     atom   59 type  1   force =     0.00121102   -0.00063400   -0.00740361
     atom   60 type  1   force =     0.00025879    0.00014095   -0.00639208
     atom   61 type  1   force =     0.00001097   -0.00000292   -0.00005428
     atom   62 type  1   force =     0.00002146    0.00001542   -0.00000240
     atom   63 type  1   force =     0.00010822    0.00009455   -0.00006518
     atom   64 type  1   force =     0.00002394    0.00000187    0.00002295
     atom   65 type  2   force =     0.00000113   -0.00000791    0.00006866
     atom   66 type  3   force =    -0.00000354   -0.00001013   -0.00036373
     atom   67 type  3   force =     0.00000384   -0.00000213   -0.00009915

     Total force =     0.000617     Total SCF correction =     0.000039
     Energy error            =      7.0E-07
     Gradient error          =      3.6E-04

     bfgs converged in   9 scf cycles and   8 bfgs steps
     (criteria: energy <  7.3E-07 Ry, force <  3.9E-04 Ry/Bohr)

     End of BFGS Geometry Optimization

     Final energy   =  -21094.9624106889 Ry

     File ./Fe_NH_H_paper_480c_ESM_std.bfgs deleted, as requested
Begin final coordinates

ATOMIC_POSITIONS (angstrom)
Fe            1.6549129530        1.1702001330        0.0000000000    0   0   0
Fe            0.0000000000        0.0000000000        2.0269842320    0   0   0
Fe            4.9647388580        3.5106003990        0.0000000000    0   0   0
Fe            3.3098259060        2.3404002660        2.0269842320    0   0   0
Fe            1.6768458554        1.1694689318        4.0244548995
Fe            3.3213145816        9.3550713197        6.0025289199
Fe            4.9763400507        3.5248008878        4.0421769016
Fe            3.3701923168        2.3344770622        6.0106574094
Fe            2.4823638580        3.5106003990        0.0000000000    0   0   0
Fe            4.1372879530        1.1702001330        0.0000000000    0   0   0
Fe            0.8274509060        2.3404002660        2.0269842320    0   0   0
Fe            2.4823750000        0.0000000000        2.0269842320    0   0   0
Fe            2.4828645466        3.5097183395        4.0412421862
Fe            4.1617066441        1.1876205952        4.0331987006
Fe            0.8653804911        2.3213441997        5.9996029255
Fe            2.4977103806        0.0109564906        6.0114181671
Fe            6.6196629530        1.1702001330        0.0000000000    0   0   0
Fe            4.9647500000        0.0000000000        2.0269842320    0   0   0
Fe            9.9294888580        3.5106003990        0.0000000000    0   0   0
Fe            8.2745759060        2.3404002660        2.0269842320    0   0   0
Fe            6.6368398688        1.1764291451        4.0419798340
Fe            4.9792632359        0.0587579452        6.0109507787
Fe            9.9173060760        3.4951895623        4.0400253532
Fe            8.3657591295        2.2111477734        5.9855843353
Fe            7.4471138580        3.5106003990        0.0000000000    0   0   0
Fe            9.1020379530        1.1702001330        0.0000000000    0   0   0
Fe            5.7922009060        2.3404002660        2.0269842320    0   0   0
Fe            7.4471250000        0.0000000000        2.0269842320    0   0   0
Fe            7.4466801112        3.5100579915        4.0003709041
Fe            9.1207890831        1.1417489467        4.0133146495
Fe            5.8866258408        2.4068170141        6.0498456406
Fe           10.7703232128        9.3211891462        6.0001188418
Fe            3.3098147640        5.8510006640        0.0000000000    0   0   0
Fe            1.6549018110        4.6808005310        2.0269842320    0   0   0
Fe            6.6196406700        8.1914009300        0.0000000000    0   0   0
Fe            4.9647277170        7.0212007970        2.0269842320    0   0   0
Fe            3.2888357809        5.8516552568        4.0274025755
Fe           11.5254021061        4.6785317630        6.0071219008
Fe            6.6264166019        8.2123298287        4.0246011268
Fe            4.9625821155        7.0343376055        6.0023399623
Fe            4.1372656700        8.1914009300        0.0000000000    0   0   0
Fe            5.7921897640        5.8510006640        0.0000000000    0   0   0
Fe           12.4118527170        7.0212007970        2.0269842320    0   0   0
Fe            4.1372768110        4.6808005310        2.0269842320    0   0   0
Fe            4.1362829721        8.1908006212        4.0162167625
Fe            5.7717210847        5.8780519898        4.0133801917
Fe           12.3857159318        7.0026691674        6.0132409398
Fe            4.1037346631        4.7070607998        6.0006145832
Fe            8.2745647640        5.8510006640        0.0000000000    0   0   0
Fe            6.6196518110        4.6808005310        2.0269842320    0   0   0
Fe           11.5843906700        8.1914009300        0.0000000000    0   0   0
Fe            9.9294777170        7.0212007970        2.0269842320    0   0   0
Fe            8.2560096613        5.8446915108        4.0401550844
Fe            6.5284429109        4.8096184451        5.9854624788
Fe           11.5781175396        8.1713271517        4.0273090534
Fe            9.9079096029        6.9660056330        6.0069925730
Fe            9.1020156700        8.1914009300        0.0000000000    0   0   0
Fe           10.7569397640        5.8510006640        0.0000000000    0   0   0
Fe            7.4471027170        7.0212007970        2.0269842320    0   0   0
Fe            9.1020268110        4.6808005310        2.0269842320    0   0   0
Fe            9.1014808511        8.1923734466        4.0413047896
Fe           10.7319430085        5.8334047846        4.0310609872
Fe            7.4418817739        7.0632850736        5.9999738852
Fe            9.0098336668        4.6153010728        6.0490386631
N             7.4483658868        3.5113665236        6.9982006543
H             7.4500025987        3.5127423997        8.0265363081
H             4.5633146490        8.4927289510        6.9439847203
End final coordinates

     Writing output data file ./Fe_NH_H_paper_480c_ESM_std.save/

     General routines

     Parallel routines

   This run was terminated on:  22:20: 4   8Jul2022

   JOB DONE.