     Program PWSCF v.6.4.1 starts on  4Jun2022 at 21: 8:50

     K-points division:     npool     =       8
     R & G space division:  proc/nbgrp/npool/nimage =      20
     Waiting for input...
     Reading input from standard input
Warning: card &CELL ignored
Warning: card / ignored

     Current dimensions of program PWSCF are:
     Max number of different atomic species (ntypx) = 10
     Max number of k-points (npk) =  40000
     Max angular momentum in pseudopotentials (lmaxx) =  3

     IMPORTANT: XC functional enforced from input :
     Exchange-correlation      = PBE ( 1  4  3  4 0 0)
     Any further DFT definition will be discarded
     Please, verify this is what you really want

               file Fe.pbe-spn-kjpaw_psl.0.2.1.UPF: wavefunction(s)  3D renormalized

     Parameters for Dispersion (Grimme-D2) Correction:
       atom      VdW radius       C_6

        Fe         2.952        374.666
        N          2.640         42.670
        H          1.892          4.857

     bravais-lattice index     =            0
     lattice parameter (alat)  =      18.7640  a.u.
     unit-cell volume          =   16360.3167 (a.u.)^3
     number of atoms/cell      =           66
     number of atomic types    =            3
     number of electrons       =      1030.00
     number of Kohn-Sham states=          618
     kinetic-energy cutoff     =      60.0000  Ry
     charge density cutoff     =     480.0000  Ry
     convergence threshold     =      1.0E-08
     mixing beta               =       0.2000
     number of iterations used =           10  local-TF  mixing
     Exchange-correlation      = PBE ( 1  4  3  4 0 0)
     nstep                     =           50

     celldm(1)=  18.764036  celldm(2)=   0.000000  celldm(3)=   0.000000
     celldm(4)=   0.000000  celldm(5)=   0.000000  celldm(6)=   0.000000

     crystal axes: (cart. coord. in units of alat)
               a(1) = (   1.000000   0.000000   0.000000 )
               a(2) = (   0.333330   0.942807   0.000000 )
               a(3) = (   0.000000   0.000000   2.626577 )

     reciprocal axes: (cart. coord. in units 2 pi/alat)
               b(1) = (  1.000000 -0.353551  0.000000 )
               b(2) = (  0.000000  1.060662  0.000000 )
               b(3) = (  0.000000  0.000000  0.380724 )

     PseudoPot. # 1 for Fe read from file:
     ../../SSSP/Fe.pbe-spn-kjpaw_psl.0.2.1.UPF
     MD5 check sum: e86618425769142926afa95317d90200
     Pseudo is Projector augmented-wave + core cor, Zval = 16.0
     Generated using "atomic" code by A. Dal Corso v.5.0.99 svn rev. 10869
     Shape of augmentation charge: PSQ
     Using radial grid of 1191 points,  6 beta functions with:
                l(1) =   0
                l(2) =   0
                l(3) =   1
                l(4) =   1
                l(5) =   2
                l(6) =   2
     Q(r) pseudized with 0 coefficients

     PseudoPot. # 2 for N  read from file:
     ../../SSSP/N.pbe-n-radius_5.UPF
     MD5 check sum: 16739722b17309cd8fe442a2ace49922
     Pseudo is Ultrasoft + core correction, Zval =  5.0
     Generated using "atomic" code by A. Dal Corso v.5.1
     Using radial grid of 1085 points,  4 beta functions with:
                l(1) =   0
                l(2) =   0
                l(3) =   1
                l(4) =   1
     Q(r) pseudized with 0 coefficients

     PseudoPot. # 3 for H  read from file:
     ../../SSSP/H.pbe-rrkjus_psl.1.0.0.UPF
     MD5 check sum: f52b6d4d1c606e5624b1dc7b2218f220
     Pseudo is Ultrasoft, Zval =  1.0
     Generated using "atomic" code by A. Dal Corso v.5.1
     Using radial grid of  929 points,  2 beta functions with:
                l(1) =   0
                l(2) =   0
     Q(r) pseudized with 0 coefficients

     atomic species   valence    mass     pseudopotential
        Fe            16.00    55.84500     Fe( 1.00)
        N              5.00    14.00700     N ( 1.00)
        H              1.00     1.00800     H ( 1.00)

     Starting magnetic structure
     atomic species   magnetization
        Fe           0.100
        N            0.100
        H            0.100

     No symmetry found

   Cartesian axes

     site n.     atom                  positions (alat units)
         1           Fe  tau(   1) = (   0.1666663   0.1178509   0.0000000  )
         2           Fe  tau(   2) = (   0.0000000   0.0000000   0.2041376  )
         3           Fe  tau(   3) = (   0.4999989   0.3535526   0.0000000  )
         4           Fe  tau(   4) = (   0.3333326   0.2357017   0.2041376  )
         5           Fe  tau(   5) = (   0.1691472   0.1176094   0.4056660  )
         6           Fe  tau(   6) = (   0.3359380   0.9392018   0.6058109  )
         7           Fe  tau(   7) = (   0.4995901   0.3558703   0.4071094  )
         8           Fe  tau(   8) = (   0.3412681   0.2358492   0.6065705  )
         9           Fe  tau(   9) = (   0.2499989   0.3535526   0.0000000  )
        10           Fe  tau(  10) = (   0.4166663   0.1178509   0.0000000  )
        11           Fe  tau(  11) = (   0.0833326   0.2357017   0.2041376  )
        12           Fe  tau(  12) = (   0.2500000   0.0000000   0.2041376  )
        13           Fe  tau(  13) = (   0.2500218   0.3535847   0.4074555  )
        14           Fe  tau(  14) = (   0.4191520   0.1196486   0.4060441  )
        15           Fe  tau(  15) = (   0.0915614   0.2321511   0.6071614  )
        16           Fe  tau(  16) = (   0.2530336   0.0021777   0.6066172  )
        17           Fe  tau(  17) = (   0.6666663   0.1178509   0.0000000  )
        18           Fe  tau(  18) = (   0.5000000   0.0000000   0.2041376  )
        19           Fe  tau(  19) = (   0.9999989   0.3535526   0.0000000  )
        20           Fe  tau(  20) = (   0.8333326   0.2357017   0.2041376  )
        21           Fe  tau(  21) = (   0.6686653   0.1166981   0.4070739  )
        22           Fe  tau(  22) = (   0.5027470   0.0075037   0.6066117  )
        23           Fe  tau(  23) = (   1.0004776   0.3513212   0.4070776  )
        24           Fe  tau(  24) = (   0.8513672   0.2102859   0.6020526  )
        25           Fe  tau(  25) = (   0.7499989   0.3535526   0.0000000  )
        26           Fe  tau(  26) = (   0.9166663   0.1178509   0.0000000  )
        27           Fe  tau(  27) = (   0.5833326   0.2357017   0.2041376  )
        28           Fe  tau(  28) = (   0.7500000   0.0000000   0.2041376  )
        29           Fe  tau(  29) = (   0.7500413   0.3535585   0.4083588  )
        30           Fe  tau(  30) = (   0.9196400   0.1137006   0.4025538  )
        31           Fe  tau(  31) = (   0.5921530   0.2419357   0.6052781  )
        32           Fe  tau(  32) = (   1.0840202   0.9339264   0.6071563  )
        33           Fe  tau(  33) = (   0.3333315   0.5892543   0.0000000  )
        34           Fe  tau(  34) = (   0.1666652   0.4714034   0.2041376  )
        35           Fe  tau(  35) = (   0.6666640   0.8249560   0.0000000  )
        36           Fe  tau(  36) = (   0.4999977   0.7071052   0.2041376  )
        37           Fe  tau(  37) = (   0.3308935   0.5895421   0.4056869  )
        38           Fe  tau(  38) = (   1.1587769   0.4713705   0.6066133  )
        39           Fe  tau(  39) = (   0.6672561   0.8273892   0.4056891  )
        40           Fe  tau(  40) = (   0.4974300   0.7108097   0.6059108  )
        41           Fe  tau(  41) = (   0.4166640   0.8249560   0.0000000  )
        42           Fe  tau(  42) = (   0.5833315   0.5892543   0.0000000  )
        43           Fe  tau(  43) = (   0.2499978   0.7071052   0.2041376  )
        44           Fe  tau(  44) = (   0.4166652   0.4714034   0.2041376  )
        45           Fe  tau(  45) = (   0.4166844   0.8249818   0.4044816  )
        46           Fe  tau(  46) = (   0.5803842   0.5934793   0.4025899  )
        47           Fe  tau(  47) = (   1.2470077   0.7050318   0.6066043  )
        48           Fe  tau(  48) = (   0.4085172   0.4750833   0.6072198  )
        49           Fe  tau(  49) = (   0.8333314   0.5892543   0.0000000  )
        50           Fe  tau(  50) = (   0.6666652   0.4714034   0.2041376  )
        51           Fe  tau(  51) = (   1.1666640   0.8249560   0.0000000  )
        52           Fe  tau(  52) = (   0.9999977   0.7071052   0.2041376  )
        53           Fe  tau(  53) = (   0.8313388   0.5904534   0.4071156  )
        54           Fe  tau(  54) = (   0.6487232   0.4968744   0.6020552  )
        55           Fe  tau(  55) = (   1.1661157   0.8225743   0.4056597  )
        56           Fe  tau(  56) = (   0.9972943   0.6997385   0.6065670  )
        57           Fe  tau(  57) = (   0.9166640   0.8249560   0.0000000  )
        58           Fe  tau(  58) = (   1.0833314   0.5892543   0.0000000  )
        59           Fe  tau(  59) = (   0.7499977   0.7071052   0.2041376  )
        60           Fe  tau(  60) = (   0.9166652   0.4714034   0.2041376  )
        61           Fe  tau(  61) = (   0.9166776   0.8249875   0.4074566  )
        62           Fe  tau(  62) = (   1.0808628   0.5875460   0.4060466  )
        63           Fe  tau(  63) = (   0.7493229   0.7160880   0.6072273  )
        64           Fe  tau(  64) = (   0.9079495   0.4652293   0.6052882  )
        65           N   tau(  65) = (   0.7500494   0.3535839   0.6399018  )
        66           H   tau(  66) = (   0.4594390   0.8541215   0.6991287  )

     number of k points=    10  Methfessel-Paxton smearing, width (Ry)=  0.0100
                       cart. coord. in units 2pi/alat
        k(    1) = (   0.0000000   0.0000000   0.0000000), wk =   0.0625000
        k(    2) = (   0.0000000   0.2651656   0.0000000), wk =   0.1250000
        k(    3) = (   0.0000000  -0.5303312   0.0000000), wk =   0.0625000
        k(    4) = (   0.2500000  -0.0883877   0.0000000), wk =   0.1250000
        k(    5) = (   0.2500000   0.1767780   0.0000000), wk =   0.1250000
        k(    6) = (   0.2500000  -0.6187189   0.0000000), wk =   0.1250000
        k(    7) = (   0.2500000  -0.3535533   0.0000000), wk =   0.1250000
        k(    8) = (  -0.5000000   0.1767753   0.0000000), wk =   0.0625000
        k(    9) = (  -0.5000000   0.4419409   0.0000000), wk =   0.1250000
        k(   10) = (  -0.5000000  -0.3535559   0.0000000), wk =   0.0625000

     Check: negative core charge=   -0.000039

     Initial potential from superposition of free atoms

     starting charge 1029.97193, renormalised to 1030.00000

     negative rho (up, down):  2.478E-02 2.539E-03
     Starting wfcs are  837 randomized atomic wfcs
     Checking if some PAW data can be deallocated...

     Self-consistent Calculation

     iteration #  1     ecut=    60.00 Ry     beta= 0.20
     Davidson diagonalization with overlap
     ethr =  1.00E-04,  avg # of iterations = 10.4

     negative rho (up, down):  1.260E-02 4.214E-03

     total energy              =  -21093.66684866 Ry
     Harris-Foulkes estimate   =  -21094.12135042 Ry
     estimated scf accuracy    <      27.82875037 Ry

     total magnetization       =   133.81 Bohr mag/cell
     absolute magnetization    =   134.08 Bohr mag/cell

[...]

     Magnetic moment per site:
[...]
     atom:   56    charge:   12.4620    magn:    2.3175    constr:    0.0000
     atom:   57    charge:   12.4650    magn:    2.3212    constr:    0.0000
     atom:   58    charge:   12.4648    magn:    2.3263    constr:    0.0000
     atom:   59    charge:   12.4519    magn:    2.1818    constr:    0.0000
     atom:   60    charge:   12.4510    magn:    2.1935    constr:    0.0000
     atom:   61    charge:   12.4521    magn:    2.1801    constr:    0.0000
     atom:   62    charge:   12.4545    magn:    2.1594    constr:    0.0000
     atom:   63    charge:   12.4650    magn:    2.3065    constr:    0.0000
     atom:   64    charge:   12.4568    magn:    2.1100    constr:    0.0000
     atom:   65    charge:    3.7332    magn:   -0.1334    constr:    0.0000
     atom:   66    charge:    0.9536    magn:   -0.0238    constr:    0.0000

     End of self-consistent calculation

 ------ SPIN UP ------------

[...]

 ------ SPIN DOWN ----------

[...]

          k = 0.2500-0.3536 0.0000 (128397 PWs)   bands (ev):

[...]

          k =-0.5000-0.3536 0.0000 (128560 PWs)   bands (ev):

   -83.5591 -83.5587 -83.1364 -83.1339 -83.0280 -83.0271 -83.0032 -82.9782
   -82.9701 -82.9078 -82.9010 -82.8910 -82.8883 -82.8812 -82.8769 -82.8768
   -82.8656 -82.8651 -82.8620 -82.8558 -82.8549 -82.8522 -82.8501 -82.8488
   -82.8465 -82.8441 -82.8430 -82.8385 -82.8384 -82.8341 -82.8331 -82.8328
   -82.8315 -82.8313 -82.8283 -82.8212 -82.8165 -82.8156 -82.8116 -82.8115
   -82.8104 -82.8060 -82.8057 -82.8035 -82.8032 -82.8006 -82.7993 -82.7974
   -82.7915 -82.7858 -82.7836 -82.7818 -82.7811 -82.7799 -82.7795 -82.7792
   -82.7767 -82.7756 -82.7753 -82.7737 -82.7600 -82.7576 -82.7561 -82.7535
   -50.1002 -50.0920 -49.5627 -49.5512 -49.4882 -49.4787 -49.4455 -49.4405
   -49.2732 -49.2526 -49.2285 -49.2209 -49.2201 -49.2146 -49.2108 -49.2083
   -49.1866 -49.1863 -49.1742 -49.1721 -49.1698 -49.1631 -49.1526 -49.1520
   -49.1453 -49.1444 -49.1406 -49.1384 -49.1380 -49.1294 -49.1292 -49.1284
   -49.1258 -49.1253 -49.1193 -49.1141 -49.1129 -49.1072 -49.1033 -49.1032
   -49.0994 -49.0990 -49.0924 -49.0907 -49.0893 -49.0861 -49.0851 -49.0833
   -49.0830 -49.0784 -49.0736 -49.0700 -49.0656 -49.0604 -49.0593 -49.0592
   -49.0574 -49.0539 -49.0523 -49.0520 -49.0504 -49.0498 -49.0497 -49.0488
   -49.0463 -49.0442 -49.0427 -49.0420 -49.0407 -49.0357 -49.0330 -49.0299
   -49.0284 -49.0258 -49.0210 -49.0126 -49.0046 -49.0033 -48.9998 -48.9974
   -48.9918 -48.9906 -48.9842 -48.9835 -48.9804 -48.9794 -48.9646 -48.9629
   -48.9614 -48.9593 -48.9579 -48.9536 -48.9527 -48.9476 -48.9459 -48.9454
   -48.9432 -48.9386 -48.9357 -48.9347 -48.9325 -48.9301 -48.9277 -48.9256
   -48.9247 -48.9213 -48.9183 -48.9119 -48.9092 -48.9091 -48.9080 -48.9073
   -48.9045 -48.9035 -48.9019 -48.8999 -48.8994 -48.8986 -48.8970 -48.8943
   -48.8907 -48.8879 -48.8870 -48.8852 -48.8803 -48.8769 -48.8747 -48.8732
   -48.8724 -48.8714 -48.8679 -48.8665 -48.8659 -48.8645 -48.8602 -48.8577
   -48.8539 -48.8521 -48.8518 -48.8472 -48.8467 -48.8452 -48.8442 -48.8439
   -48.8427 -48.8420 -48.8406 -48.8394 -48.8371 -48.8360 -48.8357 -48.8353
   -48.8341 -48.8314 -48.8289 -48.8279 -48.8267 -48.8260 -48.8237 -48.8233
   -48.8181 -48.8178 -48.8168 -48.8137 -48.8116 -48.8107 -48.8103 -48.8096
   -48.8091 -48.8083 -48.8080 -48.8075 -48.8053 -48.8049 -48.8048 -48.8040
   -48.8011 -48.8009 -48.7973 -48.7957 -48.7945 -48.7929 -48.7914 -48.7891
   -48.7880 -48.7869 -48.7854 -48.7834 -48.7802 -48.7798 -48.7765 -48.7742
   -13.4665  -4.9312  -4.8841  -4.3843  -4.3717  -3.9465  -3.9061  -3.7656
    -3.3817  -3.2447  -2.8897  -2.7788  -2.6819  -2.2827  -2.2288  -2.2126
    -2.0680  -1.8342  -1.5995  -1.4435  -1.4296  -1.4119  -1.3995  -1.3907
    -1.3263  -1.3245  -1.2957  -1.2467  -1.2282  -1.1540  -0.9875  -0.8732
    -0.8685  -0.8601  -0.8435  -0.7922  -0.7501  -0.6699  -0.4955  -0.4114
    -0.4075  -0.3960  -0.3656  -0.3536  -0.3415  -0.3009  -0.2692  -0.2394
    -0.2270  -0.1738  -0.1133  -0.1082  -0.0823  -0.0700  -0.0611  -0.0540
     0.1214   0.1419   0.1602   0.1635   0.1903   0.2220   0.2605   0.3919
     0.4347   0.4500   0.4572   0.5000   0.5031   0.5101   0.5786   0.6174
     0.6368   0.6544   0.6842   0.6894   0.7007   0.7196   0.7252   0.7355
     0.7487   0.7595   0.8045   0.8266   0.8274   0.8338   0.8349   0.8409
     0.8667   0.8728   0.8752   0.9082   0.9180   1.0069   1.0408   1.0440
     1.0508   1.0525   1.1219   1.1454   1.1709   1.1820   1.1856   1.1915
     1.2049   1.2089   1.2107   1.2175   1.2565   1.2690   1.2693   1.2759
     1.2785   1.2861   1.2875   1.3018   1.3044   1.3080   1.3169   1.3215
     1.3363   1.3448   1.3563   1.3571   1.3633   1.3638   1.3724   1.3866
     1.3944   1.4071   1.4239   1.4283   1.4303   1.4315   1.4360   1.4425
     1.4547   1.4620   1.4821   1.4843   1.5226   1.6086   1.6416   1.6550
     1.6748   1.6822   1.6828   1.6967   1.6999   1.7113   1.7186   1.7353
     1.7361   1.8074   1.8402   1.8457   1.8634   1.8694   1.8744   1.8850
     1.8938   1.9013   1.9283   1.9437   1.9441   1.9695   2.0157   2.0382
     2.0677   2.0792   2.0951   2.1549   2.1670   2.1923   2.2086   2.2211
     2.2467   2.2483   2.2580   2.2642   2.2782   2.3027   2.3151   2.3289
     2.3337   2.3445   2.3800   2.3840   2.4352   2.5622   2.5866   2.5941
     2.6982   2.7280   2.7314   2.8432   2.8676   2.8947   2.9129   2.9678
     2.9967   2.9998   3.0038   3.0520   3.0737   3.1006   3.1055   3.1328
     3.1445   3.1648   3.2098   3.2368   3.2488   3.2502   3.2508   3.2820
     3.3447   3.3589   3.3613   3.3656   3.3738   3.3922   3.4319   3.4476
[...]
     3.8041   3.8415   3.8432   3.8504   3.8557   3.8667   3.8997   3.9034
     3.9071   3.9224   3.9237   3.9306   3.9580   3.9604   3.9639   3.9790
     3.9799   3.9953   3.9980   4.0067   4.0115   4.0134   4.0290   4.0358
     4.0373   4.0631   4.0672   4.0710   4.0771   4.0875   4.0945   4.0991
     4.1008   4.1036   4.1059   4.1139   4.1291   4.1333   4.1410   4.1473
     4.1526   4.1727   4.1755   4.1769   4.1852   4.1878   4.1963   4.1990
     4.2028   4.2239   4.2356   4.2384   4.2460   4.2702   4.2803   4.2815
     4.3008   4.3011   4.3056   4.3179   4.3183   4.3292   4.3334   4.3639
     4.3661   4.3730   4.3743   4.3848   4.3898   4.3960   4.4037   4.4118
     4.4144   4.4146   4.4200   4.4239   4.4286   4.4348   4.4503   4.4605
     4.4621   4.4703   4.4732   4.4877   4.4957   4.5012   4.5264   4.5272
     4.5463   4.5514   4.5528   4.5768   4.5807   4.5912   4.7234   4.7463
     4.7794   4.7968   4.8311   4.8454   4.9712   4.9979   5.0111   5.0165
     5.0232   5.0500   5.0591   5.0755   5.0897   5.1111   5.1187   5.3218
     5.3331   5.3684

     the Fermi energy is     2.2568 ev

!    total energy              =  -21093.76701714 Ry
     Harris-Foulkes estimate   =  -21093.76701704 Ry
     estimated scf accuracy    <          2.7E-11 Ry

     The total energy is the sum of the following terms:

     one-electron contribution = -168082.50930493 Ry
     hartree contribution      =   84121.34060588 Ry
     xc contribution           =   -2234.33616476 Ry
     ewald contribution        =   69976.58346163 Ry
     Dispersion Correction     =      -1.39613326 Ry
     one-center paw contrib.   =   -4873.45270620 Ry
     smearing contrib. (-TS)   =       0.00322451 Ry

     total magnetization       =   160.39 Bohr mag/cell
     absolute magnetization    =   167.32 Bohr mag/cell

     convergence has been achieved in   9 iterations

     negative rho (up, down):  2.550E-02 1.800E-02

     Forces acting on atoms (cartesian axes, Ry/au):

     atom    1 type  1   force =     0.00010586    0.00066209    0.00895658
     atom    2 type  1   force =     0.00258079   -0.00392668   -0.01576240
     atom    3 type  1   force =    -0.00087587   -0.00068825    0.00866449
     atom    4 type  1   force =     0.00075932    0.00123678   -0.00843496
     atom    5 type  1   force =    -0.00000698    0.00002862    0.00010011
     atom    6 type  1   force =    -0.00000855    0.00000216   -0.00002525
     atom    7 type  1   force =    -0.00002921    0.00004015   -0.00000313
     atom    8 type  1   force =    -0.00004481   -0.00002734   -0.00002163
     atom    9 type  1   force =     0.00006363    0.00010737    0.00845713
     atom   10 type  1   force =    -0.00064851   -0.00046196    0.00898078
     atom   11 type  1   force =     0.00103501   -0.00025493   -0.00893651
     atom   12 type  1   force =     0.00036207    0.00031314   -0.01313036
     atom   13 type  1   force =     0.00001078    0.00002806   -0.00005080
     atom   14 type  1   force =     0.00003242    0.00005241   -0.00001034
     atom   15 type  1   force =    -0.00003787    0.00007301    0.00002203
     atom   16 type  1   force =     0.00016144    0.00010746    0.00000031
     atom   17 type  1   force =    -0.00094474   -0.00054163    0.00864002
     atom   18 type  1   force =     0.00142608    0.00031164   -0.00840494
     atom   19 type  1   force =     0.00074628    0.00064698    0.00872188
     atom   20 type  1   force =    -0.00123256    0.00150660   -0.00305549
     atom   21 type  1   force =     0.00002703   -0.00003401   -0.00000548
     atom   22 type  1   force =    -0.00003812   -0.00002031   -0.00003149
     atom   23 type  1   force =     0.00000341    0.00003793   -0.00002567
     atom   24 type  1   force =     0.00004283   -0.00002403   -0.00003757
     atom   25 type  1   force =     0.00003320   -0.00002841    0.00746688
     atom   26 type  1   force =    -0.00104245    0.00132623    0.00835713
     atom   27 type  1   force =     0.00133421    0.00087077   -0.00374084
     atom   28 type  1   force =     0.00009262   -0.00100955   -0.00827945
     atom   29 type  1   force =    -0.00003460   -0.00002602    0.00000814
     atom   30 type  1   force =     0.00002725    0.00002214    0.00001789
     atom   31 type  1   force =    -0.00001336   -0.00000644   -0.00001851
     atom   32 type  1   force =     0.00005967   -0.00002960   -0.00001232
     atom   33 type  1   force =     0.00006776   -0.00075661    0.00875628
     atom   34 type  1   force =    -0.00062550   -0.00122221   -0.00850528
     atom   35 type  1   force =     0.00066416   -0.00012779    0.00896190
     atom   36 type  1   force =    -0.00288525    0.00381283   -0.01576020
     atom   37 type  1   force =     0.00002548    0.00003735    0.00001159
     atom   38 type  1   force =     0.00002741    0.00001467    0.00003700
     atom   39 type  1   force =     0.00001983   -0.00002676    0.00009130
     atom   40 type  1   force =    -0.00000701    0.00001093   -0.00006094
     atom   41 type  1   force =     0.00016107    0.00005950    0.00932616
     atom   42 type  1   force =     0.00090539   -0.00142489    0.00835886
     atom   43 type  1   force =    -0.00089072   -0.00055552   -0.01256880
     atom   44 type  1   force =    -0.00093851    0.00042160   -0.00820711
     atom   45 type  1   force =     0.00005662    0.00004639    0.00000457
     atom   46 type  1   force =     0.00004630   -0.00000518    0.00004113
     atom   47 type  1   force =     0.00002297    0.00002167    0.00007626
     atom   48 type  1   force =    -0.00001047    0.00006573   -0.00000098
     atom   49 type  1   force =     0.00083992    0.00053679    0.00873853
     atom   50 type  1   force =     0.00106041   -0.00175682   -0.00302102
     atom   51 type  1   force =    -0.00069090    0.00032477    0.00878703
     atom   52 type  1   force =    -0.00135835   -0.00018244   -0.00853574
     atom   53 type  1   force =     0.00003716   -0.00000099   -0.00002148
     atom   54 type  1   force =    -0.00000513    0.00004123   -0.00003013
     atom   55 type  1   force =     0.00003773    0.00000135    0.00000645
     atom   56 type  1   force =     0.00001768    0.00002662    0.00003780
     atom   57 type  1   force =     0.00008945   -0.00004226    0.00844444
     atom   58 type  1   force =     0.00051306    0.00035399    0.00895580
     atom   59 type  1   force =     0.00010572    0.00107461   -0.00887929
     atom   60 type  1   force =    -0.00119633   -0.00091164   -0.00366922
     atom   61 type  1   force =     0.00001352    0.00002297   -0.00004629
     atom   62 type  1   force =    -0.00008348   -0.00003619    0.00002832
     atom   63 type  1   force =     0.00004189   -0.00005752    0.00003876
     atom   64 type  1   force =    -0.00002988   -0.00002708    0.00006326
     atom   65 type  2   force =    -0.00004765   -0.00003642    0.00006660
     atom   66 type  3   force =     0.00006934    0.00000293    0.00006821

     Total force =     0.000421     Total SCF correction =     0.000024

     bfgs converged in  18 scf cycles and  17 bfgs steps
     (criteria: energy <  7.3E-07 Ry, force <  3.9E-04 Ry/Bohr)

     End of BFGS Geometry Optimization

     Final energy   =  -21093.7670171367 Ry
Begin final coordinates

ATOMIC_POSITIONS (angstrom)
Fe       1.654912953   1.170200133   0.000000000    0   0   0
Fe       0.000000000   0.000000000   2.026984232    0   0   0
Fe       4.964738858   3.510600399   0.000000000    0   0   0
Fe       3.309825906   2.340400266   2.026984232    0   0   0
Fe       1.679707415   1.166328204   4.025084094
Fe       3.334451713   9.326285736   6.018407781
Fe       4.959884175   3.534800585   4.042673409
Fe       3.394335855   2.334744960   6.022689771
Fe       2.482363858   3.510600399   0.000000000    0   0   0
Fe       4.137287953   1.170200133   0.000000000    0   0   0
Fe       0.827450906   2.340400266   2.026984232    0   0   0
Fe       2.482375000   0.000000000   2.026984232    0   0   0
Fe       2.482846406   3.509109192   4.047716530
Fe       4.160672573   1.186770497   4.031348815
Fe       0.914571552   2.302542265   6.023972530
Fe       2.509053507   0.018974800   6.017898026
Fe       6.619662953   1.170200133   0.000000000    0   0   0
Fe       4.964750000   0.000000000   2.026984232    0   0   0
Fe       9.929488858   3.510600399   0.000000000    0   0   0
Fe       8.274575906   2.340400266   2.026984232    0   0   0
Fe       6.640692505   1.157218606   4.042408467
Fe       4.987428193   0.081190209   6.022939213
Fe       9.933003939   3.484473037   4.039507535
Fe       8.457508714   2.081914962   5.981959315
Fe       7.447113858   3.510600399   0.000000000    0   0   0
Fe       9.102037953   1.170200133   0.000000000    0   0   0
Fe       5.792200906   2.340400266   2.026984232    0   0   0
Fe       7.447125000   0.000000000   2.026984232    0   0   0
Fe       7.446460947   3.509692751   4.058236246
Fe       9.130834797   1.125902697   4.001704265
Fe       5.882476625   2.403489632   6.004809114
Fe      10.770214084   9.267960524   6.029737971
Fe       3.309814764   5.851000664   0.000000000    0   0   0
Fe       1.654901811   4.680800531   2.026984232    0   0   0
Fe       6.619640670   8.191400930   0.000000000    0   0   0
Fe       4.964727717   7.021200797   2.026984232    0   0   0
Fe       3.284076657   5.852967442   4.029375017
Fe      11.502886749   4.675010555   6.018748395
Fe       6.624405120   8.215958337   4.025308389
Fe       4.939747436   7.056183200   6.019379566
Fe       4.137265670   8.191400930   0.000000000    0   0   0
Fe       5.792189764   5.851000664   0.000000000    0   0   0
Fe       2.482352717   7.021200797   2.026984232    0   0   0
Fe       4.137276811   4.680800531   2.026984232    0   0   0
Fe       4.135302045   8.189888197   4.010579606
Fe       5.759820328   5.893078660   4.001949994
Fe      12.369842764   6.991373226   6.023174082
Fe       4.053767583   4.724760749   6.029961700
Fe       8.274564764   5.851000664   0.000000000    0   0   0
Fe       6.619651811   4.680800531   2.026984232    0   0   0
Fe      11.584390670   8.191400930   0.000000000    0   0   0
Fe       9.929477717   7.021200797   2.026984232    0   0   0
Fe       8.250836700   5.862693641   4.039686468
Fe       6.437298610   4.938656422   5.981760789
Fe      11.577838231   8.166431441   4.029283003
Fe       9.896670378   6.946223995   6.018414059
Fe       9.102015670   8.191400930   0.000000000    0   0   0
Fe      10.756939764   5.851000664   0.000000000    0   0   0
Fe       7.447102717   7.021200797   2.026984232    0   0   0
Fe       9.102026811   4.680800531   2.026984232    0   0   0
Fe       9.100839259   8.192129839   4.047690233
Fe      10.731274963   5.832958681   4.029970835
Fe       7.440065602   7.115480496   6.024255314
Fe       9.013834187   4.617983265   6.002439759
N        7.448817600   3.511324022   6.341505146
H        4.597370724   8.517584265   6.972362271
End final coordinates

     Writing output data file Fe_N_H_paper_480c.save/

     General routines

     Parallel routines

   This run was terminated on:   9:52:38   5Jun2022

   JOB DONE.