     Program PWSCF v.6.4.1 starts on 12Jun2022 at 21: 3:38

     K-points division:     npool     =       8
     R & G space division:  proc/nbgrp/npool/nimage =      20
     Waiting for input...
     Reading input from standard input
Warning: card &CELL ignored
Warning: card / ignored

     Current dimensions of program PWSCF are:
     Max number of different atomic species (ntypx) = 10
     Max number of k-points (npk) =  40000
     Max angular momentum in pseudopotentials (lmaxx) =  3

     IMPORTANT: XC functional enforced from input :
     Exchange-correlation      = PBE ( 1  4  3  4 0 0)
     Any further DFT definition will be discarded
     Please, verify this is what you really want

               file Fe.pbe-spn-kjpaw_psl.0.2.1.UPF: wavefunction(s)  3D renormalized

     Parameters for Dispersion (Grimme-D2) Correction:
       atom      VdW radius       C_6

        Fe         2.952        374.666
        N          2.640         42.670
        H          1.892          4.857

     bravais-lattice index     =            0
     lattice parameter (alat)  =      18.7640  a.u.
     unit-cell volume          =   16360.3163 (a.u.)^3
     number of atoms/cell      =           68
     number of atomic types    =            3
     number of electrons       =      1032.00
     number of Kohn-Sham states=          619
     kinetic-energy cutoff     =      60.0000  Ry
     charge density cutoff     =     480.0000  Ry
     convergence threshold     =      1.0E-08
     mixing beta               =       0.2000
     number of iterations used =           10  local-TF  mixing
     Exchange-correlation      = PBE ( 1  4  3  4 0 0)
     nstep                     =           50

     Effective Screening Medium Method
     Boundary Conditions: Metal-Slab-Metal
     field strength                   =    -0.01 Ry/a.u.
     grid points for fit at edges     =        4

     celldm(1)=  18.764036  celldm(2)=   0.000000  celldm(3)=   0.000000
     celldm(4)=   0.000000  celldm(5)=   0.000000  celldm(6)=   0.000000

     crystal axes: (cart. coord. in units of alat)
               a(1) = (   1.000000   0.000000   0.000000 )
               a(2) = (   0.333330   0.942807   0.000000 )
               a(3) = (   0.000000   0.000000   2.626577 )

     reciprocal axes: (cart. coord. in units 2 pi/alat)
               b(1) = (  1.000000 -0.353551  0.000000 )
               b(2) = (  0.000000  1.060663  0.000000 )
               b(3) = (  0.000000  0.000000  0.380724 )

     PseudoPot. # 1 for Fe read from file:
     ../../SSSP/Fe.pbe-spn-kjpaw_psl.0.2.1.UPF
     MD5 check sum: e86618425769142926afa95317d90200
     Pseudo is Projector augmented-wave + core cor, Zval = 16.0
     Generated using "atomic" code by A. Dal Corso v.5.0.99 svn rev. 10869
     Shape of augmentation charge: PSQ
     Using radial grid of 1191 points,  6 beta functions with:
                l(1) =   0
                l(2) =   0
                l(3) =   1
                l(4) =   1
                l(5) =   2
                l(6) =   2
     Q(r) pseudized with 0 coefficients

     PseudoPot. # 2 for N  read from file:
     ../../SSSP/N.pbe-n-radius_5.UPF
     MD5 check sum: 16739722b17309cd8fe442a2ace49922
     Pseudo is Ultrasoft + core correction, Zval =  5.0
     Generated using "atomic" code by A. Dal Corso v.5.1
     Using radial grid of 1085 points,  4 beta functions with:
                l(1) =   0
                l(2) =   0
                l(3) =   1
                l(4) =   1
     Q(r) pseudized with 0 coefficients

     PseudoPot. # 3 for H  read from file:
     ../../SSSP/H.pbe-rrkjus_psl.1.0.0.UPF
     MD5 check sum: f52b6d4d1c606e5624b1dc7b2218f220
     Pseudo is Ultrasoft, Zval =  1.0
     Generated using "atomic" code by A. Dal Corso v.5.1
     Using radial grid of  929 points,  2 beta functions with:
                l(1) =   0
                l(2) =   0
     Q(r) pseudized with 0 coefficients

     atomic species   valence    mass     pseudopotential
        Fe            16.00    55.84500     Fe( 1.00)
        N              5.00    14.00700     N ( 1.00)
        H              1.00     1.00800     H ( 1.00)

     Starting magnetic structure
     atomic species   magnetization
        Fe           0.100
        N            0.100
        H            0.100

     No symmetry found

   Cartesian axes

     site n.     atom                  positions (alat units)
         1           Fe  tau(   1) = (   0.1666663   0.1178509   0.0000000  )
         2           Fe  tau(   2) = (   0.0000000   0.0000000   0.2041376  )
         3           Fe  tau(   3) = (   0.4999989   0.3535526   0.0000000  )
         4           Fe  tau(   4) = (   0.3333326   0.2357017   0.2041376  )
         5           Fe  tau(   5) = (   0.1668369   0.1179664   0.4056137  )
         6           Fe  tau(   6) = (   0.3333948   0.9428477   0.6043333  )
         7           Fe  tau(   7) = (   0.5005257   0.3539409   0.4049512  )
         8           Fe  tau(   8) = (   0.3334307   0.2358017   0.6041204  )
         9           Fe  tau(   9) = (   0.2499989   0.3535526   0.0000000  )
        10           Fe  tau(  10) = (   0.4166663   0.1178509   0.0000000  )
        11           Fe  tau(  11) = (   0.0833326   0.2357017   0.2041376  )
        12           Fe  tau(  12) = (   0.2500000   0.0000000   0.2041376  )
        13           Fe  tau(  13) = (   0.2500303   0.3536979   0.4056039  )
        14           Fe  tau(  14) = (   0.4168191   0.1178637   0.4056158  )
        15           Fe  tau(  15) = (   0.0833358   0.2361564   0.6054962  )
        16           Fe  tau(  16) = (   0.2504323  -0.0001439   0.6055122  )
        17           Fe  tau(  17) = (   0.6666663   0.1178509   0.0000000  )
        18           Fe  tau(  18) = (   0.5000000   0.0000000   0.2041376  )
        19           Fe  tau(  19) = (   0.9999989   0.3535526   0.0000000  )
        20           Fe  tau(  20) = (   0.8333326   0.2357017   0.2041376  )
        21           Fe  tau(  21) = (   0.6669238   0.1176323   0.4045735  )
        22           Fe  tau(  22) = (   0.4999755  -0.0000906   0.6065746  )
        23           Fe  tau(  23) = (   1.0001041   0.3532419   0.4046086  )
        24           Fe  tau(  24) = (   0.8340634   0.2347098   0.5996506  )
        25           Fe  tau(  25) = (   0.7499989   0.3535526   0.0000000  )
        26           Fe  tau(  26) = (   0.9166663   0.1178509   0.0000000  )
        27           Fe  tau(  27) = (   0.5833326   0.2357017   0.2041376  )
        28           Fe  tau(  28) = (   0.7500000   0.0000000   0.2041376  )
        29           Fe  tau(  29) = (   0.7487792   0.3552564   0.4065778  )
        30           Fe  tau(  30) = (   0.9170874   0.1172970   0.4042016  )
        31           Fe  tau(  31) = (   0.5836685   0.2348251   0.6013713  )
        32           Fe  tau(  32) = (   1.0829121   0.9428579   0.6053617  )
        33           Fe  tau(  33) = (   0.3333315   0.5892543   0.0000000  )
        34           Fe  tau(  34) = (   0.1666652   0.4714034   0.2041376  )
        35           Fe  tau(  35) = (   0.6666640   0.8249560   0.0000000  )
        36           Fe  tau(  36) = (   0.4999978   0.7071052   0.2041376  )
        37           Fe  tau(  37) = (   0.3331818   0.5896118   0.4045503  )
        38           Fe  tau(  38) = (   1.1665462   0.4713975   0.6065742  )
        39           Fe  tau(  39) = (   0.6663808   0.8252023   0.4045885  )
        40           Fe  tau(  40) = (   0.4993463   0.7080862   0.5998126  )
        41           Fe  tau(  41) = (   0.4166640   0.8249560   0.0000000  )
        42           Fe  tau(  42) = (   0.5833315   0.5892543   0.0000000  )
        43           Fe  tau(  43) = (   0.2499978   0.7071052   0.2041376  )
        44           Fe  tau(  44) = (   0.4166652   0.4714034   0.2041376  )
        45           Fe  tau(  45) = (   0.4162782   0.8255467   0.4042228  )
        46           Fe  tau(  46) = (   0.5845005   0.5875838   0.4065537  )
        47           Fe  tau(  47) = (   1.2499125   0.7066993   0.6053694  )
        48           Fe  tau(  48) = (   0.4158374   0.4720513   0.6012683  )
        49           Fe  tau(  49) = (   0.8333315   0.5892543   0.0000000  )
        50           Fe  tau(  50) = (   0.6666652   0.4714034   0.2041376  )
        51           Fe  tau(  51) = (   1.1666640   0.8249560   0.0000000  )
        52           Fe  tau(  52) = (   0.9999978   0.7071052   0.2041376  )
        53           Fe  tau(  53) = (   0.8328112   0.5888980   0.4050680  )
        54           Fe  tau(  54) = (   0.6664112   0.4714982   0.6203360  )
        55           Fe  tau(  55) = (   1.1665105   0.8248441   0.4055370  )
        56           Fe  tau(  56) = (   0.9999676   0.7071090   0.6039197  )
        57           Fe  tau(  57) = (   0.9166640   0.8249560   0.0000000  )
        58           Fe  tau(  58) = (   1.0833315   0.5892543   0.0000000  )
        59           Fe  tau(  59) = (   0.7499978   0.7071052   0.2041376  )
        60           Fe  tau(  60) = (   0.9166652   0.4714034   0.2041376  )
        61           Fe  tau(  61) = (   0.9164861   0.8249639   0.4055659  )
        62           Fe  tau(  62) = (   1.0832489   0.5890867   0.4055794  )
        63           Fe  tau(  63) = (   0.7495789   0.7079861   0.6015385  )
        64           Fe  tau(  64) = (   0.9172476   0.4707251   0.6016470  )
        65           N   tau(  65) = (   0.6670943   0.4712780   0.8294560  )
        66           H   tau(  66) = (   0.6649302   0.5674919   0.8662418  )
        67           H   tau(  67) = (   0.5836884   0.4213385   0.8637980  )
        68           H   tau(  68) = (   0.7509205   0.4235701   0.8656821  )

     number of k points=    10  Methfessel-Paxton smearing, width (Ry)=  0.0100
                       cart. coord. in units 2pi/alat
        k(    1) = (   0.0000000   0.0000000   0.0000000), wk =   0.0625000
        k(    2) = (   0.0000000   0.2651656   0.0000000), wk =   0.1250000
        k(    3) = (   0.0000000  -0.5303313   0.0000000), wk =   0.0625000
        k(    4) = (   0.2500000  -0.0883878   0.0000000), wk =   0.1250000
        k(    5) = (   0.2500000   0.1767779   0.0000000), wk =   0.1250000
        k(    6) = (   0.2500000  -0.6187190   0.0000000), wk =   0.1250000
        k(    7) = (   0.2500000  -0.3535534   0.0000000), wk =   0.1250000
        k(    8) = (  -0.5000000   0.1767755   0.0000000), wk =   0.0625000
        k(    9) = (  -0.5000000   0.4419412   0.0000000), wk =   0.1250000
        k(   10) = (  -0.5000000  -0.3535558   0.0000000), wk =   0.0625000

     Check: negative core charge=   -0.000039

     Initial potential from superposition of free atoms

     starting charge 1031.97191, renormalised to 1032.00000

     negative rho (up, down):  2.373E-02 2.555E-03
     Starting wfcs are  839 randomized atomic wfcs
     Checking if some PAW data can be deallocated...

     Self-consistent Calculation

     iteration #  1     ecut=    60.00 Ry     beta= 0.20
     Davidson diagonalization with overlap
     c_bands:  1 eigenvalues not converged
     ethr =  1.00E-04,  avg # of iterations = 18.9

[...]
     atom:   62    charge:   13.4694    magn:    2.3383    constr:    0.0000
     atom:   63    charge:   13.4617    magn:    2.5261    constr:    0.0000
     atom:   64    charge:   13.4614    magn:    2.5280    constr:    0.0000
     atom:   65    charge:    1.3498    magn:   -0.0016    constr:    0.0000
     atom:   66    charge:    0.4461    magn:    0.0012    constr:    0.0000
     atom:   67    charge:    0.4415    magn:    0.0020    constr:    0.0000
     atom:   68    charge:    0.4442    magn:    0.0010    constr:    0.0000

     End of self-consistent calculation

 ------ SPIN UP ------------

[...]

 ------ SPIN DOWN ----------

[...]

          k = 0.2500-0.3536 0.0000 (128397 PWs)   bands (ev):

[...]

          k =-0.5000-0.3536 0.0000 (128560 PWs)   bands (ev):

   -91.5342 -91.3843 -91.3737 -91.3716 -91.3690 -91.3515 -91.3436 -91.3434
   -91.3421 -91.3404 -91.3379 -91.3341 -91.3299 -91.3279 -91.3269 -91.3267
   -91.3261 -91.3175 -91.3175 -91.3147 -91.3143 -91.3116 -91.3111 -91.3087
   -91.3079 -91.3064 -91.3044 -91.3036 -91.3025 -91.2884 -91.2839 -91.2835
   -91.2820 -91.2721 -91.2717 -91.2709 -91.2688 -91.2633 -91.2623 -91.2615
   -91.2615 -91.2608 -91.2515 -91.2511 -91.2495 -91.2439 -91.2406 -91.2406
   -91.2401 -91.2400 -91.2395 -91.2389 -91.2386 -91.2371 -91.2366 -91.2360
   -91.2336 -91.2233 -91.2209 -91.2193 -91.2189 -91.2172 -91.2169 -91.2162
   -57.7883 -57.6926 -57.6438 -57.6324 -57.6261 -57.6249 -57.6196 -57.6161
   -57.6152 -57.6131 -57.6110 -57.6094 -57.6064 -57.6063 -57.6059 -57.6057
   -57.6048 -57.6039 -57.5981 -57.5965 -57.5953 -57.5941 -57.5865 -57.5852
   -57.5846 -57.5778 -57.5705 -57.5679 -57.5641 -57.5639 -57.5620 -57.5563
   -57.5561 -57.5479 -57.5465 -57.5415 -57.5362 -57.5349 -57.5307 -57.5301
   -57.5292 -57.5288 -57.5263 -57.5243 -57.5235 -57.5195 -57.5192 -57.5168
   -57.5163 -57.5159 -57.5146 -57.5143 -57.5134 -57.5108 -57.5077 -57.5045
   -57.5041 -57.5035 -57.5033 -57.5009 -57.5007 -57.5007 -57.5000 -57.4732
   -57.4698 -57.4662 -57.4629 -57.4628 -57.4550 -57.4537 -57.4517 -57.4515
   -57.4453 -57.4446 -57.4438 -57.4311 -57.4301 -57.4245 -57.4244 -57.4195
   -57.4145 -57.4144 -57.4093 -57.4087 -57.4081 -57.4063 -57.4014 -57.4010
   -57.4005 -57.3992 -57.3984 -57.3977 -57.3930 -57.3921 -57.3862 -57.3845
   -57.3770 -57.3767 -57.3759 -57.3755 -57.3704 -57.3689 -57.3678 -57.3655
   -57.3641 -57.3633 -57.3600 -57.3595 -57.3561 -57.3558 -57.3545 -57.3541
   -57.3498 -57.3487 -57.3464 -57.3425 -57.3414 -57.3385 -57.3341 -57.3305
   -57.3297 -57.3296 -57.3290 -57.3282 -57.3267 -57.3260 -57.3245 -57.3177
   -57.3163 -57.3116 -57.3092 -57.3080 -57.3043 -57.3027 -57.3023 -57.2991
   -57.2991 -57.2982 -57.2965 -57.2961 -57.2952 -57.2943 -57.2930 -57.2927
   -57.2908 -57.2907 -57.2893 -57.2874 -57.2867 -57.2863 -57.2812 -57.2810
   -57.2800 -57.2782 -57.2765 -57.2764 -57.2764 -57.2755 -57.2753 -57.2724
   -57.2721 -57.2712 -57.2705 -57.2694 -57.2693 -57.2680 -57.2677 -57.2676
   -57.2669 -57.2649 -57.2620 -57.2614 -57.2609 -57.2601 -57.2594 -57.2591
   -57.2588 -57.2580 -57.2559 -57.2532 -57.2508 -57.2507 -57.2483 -57.2475
   -57.2463 -57.2458 -57.2449 -57.2445 -57.2437 -57.2398 -57.2374 -57.2367
   -24.9341 -15.0223 -15.0109 -13.3283 -13.3210 -12.7455 -12.7374 -12.1235
   -12.0239 -11.6834 -11.4827 -11.3086 -10.7402 -10.7307 -10.7292 -10.7106
   -10.3223 -10.2798  -9.8862  -9.8855  -9.8840  -9.8824  -9.8794  -9.8529
    -9.7883  -9.7629  -9.7539  -9.7488  -9.7486  -9.7229  -9.3255  -9.3251
    -9.3249  -9.3213  -9.3191  -9.3042  -9.1059  -9.1036  -8.8579  -8.8561
    -8.8269  -8.8202  -8.8140  -8.8020  -8.7626  -8.7591  -8.7196  -8.7185
    -8.7140  -8.7057  -8.5708  -8.5577  -8.5573  -8.5478  -8.5327  -8.5274
    -8.2891  -8.2876  -8.2709  -8.2691  -8.2633  -8.2612  -8.0474  -8.0452
    -7.9999  -7.9908  -7.9529  -7.9414  -7.8458  -7.8428  -7.7753  -7.7706
    -7.7657  -7.7597  -7.7480  -7.7454  -7.7396  -7.7390  -7.7260  -7.7255
    -7.6412  -7.6388  -7.6384  -7.6287  -7.6267  -7.6247  -7.6219  -7.6190
    -7.6164  -7.6114  -7.6095  -7.6077  -7.4089  -7.4012  -7.3918  -7.3873
    -7.2723  -7.2713  -7.2690  -7.2663  -7.2505  -7.2378  -7.2179  -7.2148
    -7.2083  -7.2070  -7.1977  -7.1917  -7.1909  -7.1873  -7.1783  -7.1775
    -7.1691  -7.1580  -7.1391  -7.1387  -7.1355  -7.1294  -7.1275  -7.1236
    -7.1204  -7.1189  -7.1179  -7.1046  -7.0997  -7.0781  -7.0744  -7.0542
    -7.0337  -7.0253  -7.0226  -7.0202  -7.0182  -7.0130  -7.0099  -7.0049
    -7.0046  -7.0035  -6.9960  -6.9754  -6.9442  -6.9290  -6.8073  -6.8009
    -6.7597  -6.7457  -6.7443  -6.7431  -6.7153  -6.7135  -6.6917  -6.6872
    -6.6800  -6.6747  -6.5943  -6.5929  -6.5712  -6.5677  -6.5638  -6.5616
    -6.5479  -6.5327  -6.5169  -6.4993  -6.4970  -6.4905  -6.4681  -6.4623
    -6.3251  -6.3160  -6.3120  -6.2986  -6.2758  -6.2597  -6.2449  -6.2345
    -6.2338  -6.2276  -6.2228  -6.2047  -6.2024  -6.1842  -6.1571  -6.1194
    -6.1190  -6.1095  -6.0930  -6.0900  -6.0734  -6.0567  -5.8510  -5.8015
    -5.7974  -5.7441  -5.7237  -5.7003  -5.6543  -5.6458  -5.4805  -5.4739
    -5.4513  -5.4439  -5.4117  -5.3907  -5.3860  -5.3846  -5.3463  -5.3087
    -5.3069  -5.3065  -5.2849  -5.2765  -5.2238  -5.2176  -5.2047  -5.1980
    -5.1627  -5.1622  -5.1618  -5.1509  -5.1202  -5.0727  -5.0698  -5.0427
[...]
    -4.7395  -4.7269  -4.6940  -4.6725  -4.6633  -4.6398  -4.6114  -4.5890
    -4.5394  -4.5363  -4.5169  -4.5123  -4.5091  -4.5037  -4.5023  -4.4977
    -4.4935  -4.4769  -4.4727  -4.4670  -4.4531  -4.4476  -4.4465  -4.4452
    -4.4427  -4.4402  -4.4387  -4.4208  -4.4177  -4.3966  -4.3820  -4.3811
    -4.3658  -4.3652  -4.3557  -4.3541  -4.3443  -4.3411  -4.3395  -4.3372
    -4.3362  -4.3221  -4.3155  -4.2993  -4.2984  -4.2889  -4.2774  -4.2730
    -4.2727  -4.2712  -4.2653  -4.2652  -4.2642  -4.2572  -4.2530  -4.2215
    -4.2204  -4.2109  -4.1541  -4.1516  -4.1458  -4.1346  -4.1116  -4.1077
    -4.1059  -4.1011  -4.0851  -4.0799  -4.0770  -4.0720  -4.0700  -4.0685
    -4.0607  -4.0601  -4.0546  -4.0528  -4.0517  -4.0513  -4.0467  -4.0447
    -4.0405  -4.0367  -4.0058  -3.9983  -3.9963  -3.9899  -3.9896  -3.9780
    -3.9765  -3.9740  -3.9666  -3.9659  -3.9583  -3.9548  -3.8895  -3.8760
    -3.8752  -3.8730  -3.8649  -3.8619  -3.8313  -3.8303  -3.6825  -3.6734
    -3.6622  -3.6532  -3.4583  -3.4502  -3.4479  -3.4442  -3.4116  -3.3943
    -3.3859  -3.3822  -3.3579

     the Fermi energy is    -6.2070 ev

!    total energy              =  -21096.10276621 Ry
     Harris-Foulkes estimate   =  -21096.10276828 Ry
     estimated scf accuracy    <          7.7E-11 Ry

     The total energy is the sum of the following terms:

     one-electron contribution = -744603.69357406 Ry
     hartree contribution      =  372062.29786037 Ry
     xc contribution           =   -2235.76516037 Ry
     ewald contribution        =  358555.88645790 Ry
     Dispersion Correction     =      -1.39562800 Ry
     one-center paw contrib.   =   -4873.43317821 Ry
     smearing contrib. (-TS)   =       0.00045615 Ry

     total magnetization       =   161.92 Bohr mag/cell
     absolute magnetization    =   168.42 Bohr mag/cell

     convergence has been achieved in  16 iterations

     negative rho (up, down):  2.442E-02 1.974E-02

     Forces acting on atoms (cartesian axes, Ry/au):

     atom    1 type  1   force =    -0.00002815   -0.00001320    0.00918658
     atom    2 type  1   force =    -0.00001538   -0.00004066   -0.01100868
     atom    3 type  1   force =     0.00053871    0.00037298    0.00914143
     atom    4 type  1   force =     0.00030780    0.00021384   -0.00888042
     atom    5 type  1   force =     0.00003021    0.00001964    0.00005371
     atom    6 type  1   force =    -0.00000534   -0.00000330    0.00005480
     atom    7 type  1   force =     0.00006041    0.00004667    0.00010560
     atom    8 type  1   force =     0.00003078    0.00002236    0.00001326
     atom    9 type  1   force =    -0.00005270    0.00004843    0.00911351
     atom   10 type  1   force =     0.00003534   -0.00008625    0.00912758
     atom   11 type  1   force =     0.00010281   -0.00034289   -0.00975458
     atom   12 type  1   force =    -0.00028641    0.00020962   -0.00978344
     atom   13 type  1   force =    -0.00007335    0.00001340    0.00005899
     atom   14 type  1   force =    -0.00000987   -0.00007185    0.00006154
     atom   15 type  1   force =     0.00001157    0.00002355    0.00004131
     atom   16 type  1   force =     0.00002724    0.00000399    0.00004485
     atom   17 type  1   force =    -0.00033151   -0.00000297    0.00976537
     atom   18 type  1   force =    -0.00002501    0.00003622   -0.01004700
     atom   19 type  1   force =     0.00014166    0.00032783    0.00974682
     atom   20 type  1   force =    -0.00112377    0.00153704   -0.00704802
     atom   21 type  1   force =     0.00001270   -0.00002416    0.00003312
     atom   22 type  1   force =    -0.00000468   -0.00000110    0.00007082
     atom   23 type  1   force =     0.00001977   -0.00001632    0.00002436
     atom   24 type  1   force =    -0.00000850    0.00001858   -0.00015810
     atom   25 type  1   force =    -0.00009955    0.00016681    0.00910208
     atom   26 type  1   force =    -0.00014710    0.00022302    0.00906697
     atom   27 type  1   force =     0.00022326    0.00039026   -0.01024826
     atom   28 type  1   force =     0.00028717   -0.00025481   -0.00985502
     atom   29 type  1   force =     0.00000106   -0.00000157   -0.00000234
     atom   30 type  1   force =     0.00004279   -0.00005159    0.00002969
     atom   31 type  1   force =     0.00000396   -0.00000369   -0.00003364
     atom   32 type  1   force =    -0.00002866   -0.00000338    0.00004142
     atom   33 type  1   force =    -0.00011392   -0.00031952    0.00976156
     atom   34 type  1   force =     0.00002879   -0.00002467   -0.01004720
     atom   35 type  1   force =     0.00034738    0.00000666    0.00974588
     atom   36 type  1   force =     0.00108188   -0.00157956   -0.00701575
     atom   37 type  1   force =    -0.00001699    0.00002318    0.00002764
     atom   38 type  1   force =    -0.00000603   -0.00000346    0.00007249
     atom   39 type  1   force =    -0.00001227    0.00002853    0.00002484
     atom   40 type  1   force =     0.00001226   -0.00001000   -0.00016244
     atom   41 type  1   force =     0.00016439   -0.00022468    0.00908541
     atom   42 type  1   force =     0.00011933   -0.00015210    0.00910406
     atom   43 type  1   force =    -0.00014832    0.00034248   -0.00988047
     atom   44 type  1   force =     0.00042982    0.00005838   -0.01027214
     atom   45 type  1   force =    -0.00003603    0.00005970    0.00002750
     atom   46 type  1   force =    -0.00000393    0.00000466   -0.00000270
     atom   47 type  1   force =    -0.00001289   -0.00002613    0.00004747
     atom   48 type  1   force =    -0.00001021    0.00000424   -0.00003236
     atom   49 type  1   force =    -0.00055868   -0.00038833    0.00918573
     atom   50 type  1   force =    -0.00000356    0.00000174   -0.00600389
     atom   51 type  1   force =    -0.00000759    0.00001189    0.00918478
     atom   52 type  1   force =    -0.00027279   -0.00019409   -0.00899332
     atom   53 type  1   force =    -0.00005473   -0.00003369    0.00012156
     atom   54 type  1   force =     0.00000336    0.00000620    0.00013698
     atom   55 type  1   force =    -0.00003264   -0.00002276    0.00005162
     atom   56 type  1   force =    -0.00002862   -0.00001853    0.00001852
     atom   57 type  1   force =    -0.00002607    0.00008551    0.00913416
     atom   58 type  1   force =     0.00006960   -0.00005159    0.00914183
     atom   59 type  1   force =    -0.00023279   -0.00046351   -0.01024627
     atom   60 type  1   force =    -0.00051259   -0.00008702   -0.01022327
     atom   61 type  1   force =     0.00001981    0.00007467    0.00006358
     atom   62 type  1   force =     0.00007515   -0.00000846    0.00006309
     atom   63 type  1   force =     0.00000659    0.00001212   -0.00001619
     atom   64 type  1   force =     0.00000517    0.00000234   -0.00002277
     atom   65 type  2   force =    -0.00003671    0.00006444    0.00003655
     atom   66 type  3   force =     0.00000191   -0.00010347   -0.00002694
     atom   67 type  3   force =     0.00014957    0.00007003   -0.00004095
     atom   68 type  3   force =    -0.00002491    0.00009834   -0.00000092

     Total force =     0.000508     Total SCF correction =     0.000027

     bfgs converged in  23 scf cycles and  22 bfgs steps
     (criteria: energy <  7.3E-07 Ry, force <  3.9E-04 Ry/Bohr)

     End of BFGS Geometry Optimization

     Final energy   =  -21096.1027662104 Ry
Begin final coordinates

ATOMIC_POSITIONS (angstrom)
Fe       1.654912953   1.170200133   0.000000000    0   0   0
Fe       0.000000000   0.000000000   2.026984232    0   0   0
Fe       4.964738858   3.510600399   0.000000000    0   0   0
Fe       3.309825906   2.340400266   2.026984232    0   0   0
Fe       1.655839721   1.170769967   4.026415899
Fe       3.310262202   9.361867800   5.999067396
Fe       4.970611449   3.514624185   4.022915122
Fe       3.309346308   2.340064622   5.994252092
Fe       2.482363858   3.510600399   0.000000000    0   0   0
Fe       4.137287953   1.170200133   0.000000000    0   0   0
Fe       0.827450906   2.340400266   2.026984232    0   0   0
Fe       2.482375000   0.000000000   2.026984232    0   0   0
Fe       2.482591520   3.512163350   4.026769484
Fe       4.138901361   1.169840209   4.026875396
Fe       0.825986474   2.345189664   6.008497283
Fe       2.486429046  -0.003222759   6.008567703
Fe       6.619662953   1.170200133   0.000000000    0   0   0
Fe       4.964750000   0.000000000   2.026984232    0   0   0
Fe       9.929488858   3.510600399   0.000000000    0   0   0
Fe       8.274575906   2.340400266   2.026984232    0   0   0
Fe       6.621680586   1.168799792   4.017083984
Fe       4.964190432  -0.002092986   6.020289802
Fe       9.929291080   3.508011404   4.017329884
Fe       8.280323324   2.331487672   5.955507930
Fe       7.447113858   3.510600399   0.000000000    0   0   0
Fe       9.102037953   1.170200133   0.000000000    0   0   0
Fe       5.792200906   2.340400266   2.026984232    0   0   0
Fe       7.447125000   0.000000000   2.026984232    0   0   0
Fe       7.433142999   3.529054042   4.042283036
Fe       9.105193528   1.165612156   4.013479255
Fe       5.795217022   2.331653285   5.973088191
Fe      10.752697083   9.362961212   6.007662097
Fe       3.309814764   5.851000664   0.000000000    0   0   0
Fe       1.654901811   4.680800531   2.026984232    0   0   0
Fe       6.619640670   8.191400930   0.000000000    0   0   0
Fe       4.964727717   7.021200797   2.026984232    0   0   0
Fe       3.309195282   5.853547990   4.016975334
Fe      11.582781685   4.680626501   6.020312112
Fe       6.616998408   8.192125559   4.017203257
Fe       4.958755474   7.029058246   5.956832935
Fe       4.137265670   8.191400930   0.000000000    0   0   0
Fe       5.792189764   5.851000664   0.000000000    0   0   0
Fe       2.482352717   7.021200797   2.026984232    0   0   0
Fe       4.137276811   4.680800531   2.026984232    0   0   0
Fe       4.134069315   8.195847608   4.013696655
Fe       5.804922079   5.831745210   4.042155187
Fe      12.412052871   7.016654438   6.007697611
Fe       4.129880928   4.686466526   5.972155939
Fe       8.274564764   5.851000664   0.000000000    0   0   0
Fe       6.619651811   4.680800531   2.026984232    0   0   0
Fe      11.584390670   8.191400930   0.000000000    0   0   0
Fe       9.929477717   7.021200797   2.026984232    0   0   0
Fe       8.268150038   5.846262080   4.023586398
Fe       6.616680105   4.679810970   6.196412787
Fe      11.583362425   8.190561489   4.025751599
Fe       9.929723180   7.021321290   5.992591321
Fe       9.102015670   8.191400930   0.000000000    0   0   0
Fe      10.756939764   5.851000664   0.000000000    0   0   0
Fe       7.447102717   7.021200797   2.026984232    0   0   0
Fe       9.102026811   4.680800531   2.026984232    0   0   0
Fe       9.099800183   8.191029854   4.026362436
Fe      10.755902635   5.848915957   4.026483556
Fe       7.442660588   7.027427205   5.973970541
Fe       9.106294342   4.674208117   5.975004187
N        6.624856942   4.681300394   8.271345901
H        6.601991567   5.632791519   8.648185288
H        5.803974561   4.187053033   8.633200714
H        7.455424918   4.214527569   8.645544232
End final coordinates

     Writing output data file Fe_NH3_paper_480c_ESM_pn25.save/

     General routines

     Parallel routines

   This run was terminated on:   2:45:43  15Jun2022

   JOB DONE.