     Program PWSCF v.6.4.1 starts on  8Jun2022 at 15:52:29

     K-points division:     npool     =       8
     R & G space division:  proc/nbgrp/npool/nimage =      20
     Waiting for input...
     Reading input from standard input
Warning: card &CELL ignored
Warning: card / ignored

     Current dimensions of program PWSCF are:
     Max number of different atomic species (ntypx) = 10
     Max number of k-points (npk) =  40000
     Max angular momentum in pseudopotentials (lmaxx) =  3

     IMPORTANT: XC functional enforced from input :
     Exchange-correlation      = PBE ( 1  4  3  4 0 0)
     Any further DFT definition will be discarded
     Please, verify this is what you really want

               file Fe.pbe-spn-kjpaw_psl.0.2.1.UPF: wavefunction(s)  3D renormalized

     Parameters for Dispersion (Grimme-D2) Correction:
       atom      VdW radius       C_6

        Fe         2.952        374.666
        N          2.640         42.670
        H          1.892          4.857

     bravais-lattice index     =            0
     lattice parameter (alat)  =      18.7640  a.u.
     unit-cell volume          =   16360.3163 (a.u.)^3
     number of atoms/cell      =           66
     number of atomic types    =            3
     number of electrons       =      1030.00
     number of Kohn-Sham states=          618
     kinetic-energy cutoff     =      60.0000  Ry
     charge density cutoff     =     480.0000  Ry
     convergence threshold     =      1.0E-08
     mixing beta               =       0.2000
     number of iterations used =           10  local-TF  mixing
     Exchange-correlation      = PBE ( 1  4  3  4 0 0)
     nstep                     =           50

     Effective Screening Medium Method
     Boundary Conditions: Metal-Slab-Metal
     field strength                   =     0.01 Ry/a.u.
     grid points for fit at edges     =        4

     celldm(1)=  18.764036  celldm(2)=   0.000000  celldm(3)=   0.000000
     celldm(4)=   0.000000  celldm(5)=   0.000000  celldm(6)=   0.000000

     crystal axes: (cart. coord. in units of alat)
               a(1) = (   1.000000   0.000000   0.000000 )
               a(2) = (   0.333330   0.942807   0.000000 )
               a(3) = (   0.000000   0.000000   2.626577 )

     reciprocal axes: (cart. coord. in units 2 pi/alat)
               b(1) = (  1.000000 -0.353551  0.000000 )
               b(2) = (  0.000000  1.060663  0.000000 )
               b(3) = (  0.000000  0.000000  0.380724 )

     PseudoPot. # 1 for Fe read from file:
     ../../SSSP/Fe.pbe-spn-kjpaw_psl.0.2.1.UPF
     MD5 check sum: e86618425769142926afa95317d90200
     Pseudo is Projector augmented-wave + core cor, Zval = 16.0
     Generated using "atomic" code by A. Dal Corso v.5.0.99 svn rev. 10869
     Shape of augmentation charge: PSQ
     Using radial grid of 1191 points,  6 beta functions with:
                l(1) =   0
                l(2) =   0
                l(3) =   1
                l(4) =   1
                l(5) =   2
                l(6) =   2
     Q(r) pseudized with 0 coefficients

     PseudoPot. # 2 for N  read from file:
     ../../SSSP/N.pbe-n-radius_5.UPF
     MD5 check sum: 16739722b17309cd8fe442a2ace49922
     Pseudo is Ultrasoft + core correction, Zval =  5.0
     Generated using "atomic" code by A. Dal Corso v.5.1
     Using radial grid of 1085 points,  4 beta functions with:
                l(1) =   0
                l(2) =   0
                l(3) =   1
                l(4) =   1
     Q(r) pseudized with 0 coefficients

     PseudoPot. # 3 for H  read from file:
     ../../SSSP/H.pbe-rrkjus_psl.1.0.0.UPF
     MD5 check sum: f52b6d4d1c606e5624b1dc7b2218f220
     Pseudo is Ultrasoft, Zval =  1.0
     Generated using "atomic" code by A. Dal Corso v.5.1
     Using radial grid of  929 points,  2 beta functions with:
                l(1) =   0
                l(2) =   0
     Q(r) pseudized with 0 coefficients

     atomic species   valence    mass     pseudopotential
        Fe            16.00    55.84500     Fe( 1.00)
        N              5.00    14.00700     N ( 1.00)
        H              1.00     1.00800     H ( 1.00)

     Starting magnetic structure
     atomic species   magnetization
        Fe           0.100
        N            0.100
        H            0.100

     No symmetry found

   Cartesian axes

     site n.     atom                  positions (alat units)
         1           Fe  tau(   1) = (   0.1666663   0.1178509   0.0000000  )
         2           Fe  tau(   2) = (   0.0000000   0.0000000   0.2041376  )
         3           Fe  tau(   3) = (   0.4999989   0.3535526   0.0000000  )
         4           Fe  tau(   4) = (   0.3333326   0.2357017   0.2041376  )
         5           Fe  tau(   5) = (   0.1691633   0.1174609   0.4053662  )
         6           Fe  tau(   6) = (   0.3358127   0.9392503   0.6061139  )
         7           Fe  tau(   7) = (   0.4995100   0.3559898   0.4071377  )
         8           Fe  tau(   8) = (   0.3418436   0.2351322   0.6065451  )
         9           Fe  tau(   9) = (   0.2499989   0.3535526   0.0000000  )
        10           Fe  tau(  10) = (   0.4166663   0.1178509   0.0000000  )
        11           Fe  tau(  11) = (   0.0833326   0.2357017   0.2041376  )
        12           Fe  tau(  12) = (   0.2500000   0.0000000   0.2041376  )
        13           Fe  tau(  13) = (   0.2500475   0.3534024   0.4076456  )
        14           Fe  tau(  14) = (   0.4190214   0.1195197   0.4059972  )
        15           Fe  tau(  15) = (   0.0921065   0.2318890   0.6066743  )
        16           Fe  tau(  16) = (   0.2526868   0.0019110   0.6060625  )
        17           Fe  tau(  17) = (   0.6666663   0.1178509   0.0000000  )
        18           Fe  tau(  18) = (   0.5000000   0.0000000   0.2041376  )
        19           Fe  tau(  19) = (   0.9999989   0.3535526   0.0000000  )
        20           Fe  tau(  20) = (   0.8333326   0.2357017   0.2041376  )
        21           Fe  tau(  21) = (   0.6687842   0.1165435   0.4071110  )
        22           Fe  tau(  22) = (   0.5022839   0.0081767   0.6065702  )
        23           Fe  tau(  23) = (   1.0003529   0.3509213   0.4068188  )
        24           Fe  tau(  24) = (   0.8517557   0.2096697   0.6024432  )
        25           Fe  tau(  25) = (   0.7499989   0.3535526   0.0000000  )
        26           Fe  tau(  26) = (   0.9166663   0.1178509   0.0000000  )
        27           Fe  tau(  27) = (   0.5833326   0.2357017   0.2041376  )
        28           Fe  tau(  28) = (   0.7500000   0.0000000   0.2041376  )
        29           Fe  tau(  29) = (   0.7499331   0.3534612   0.4087050  )
        30           Fe  tau(  30) = (   0.9195664   0.1133897   0.4030117  )
        31           Fe  tau(  31) = (   0.5924243   0.2420555   0.6047444  )
        32           Fe  tau(  32) = (   1.0846683   0.9333764   0.6072549  )
        33           Fe  tau(  33) = (   0.3333315   0.5892543   0.0000000  )
        34           Fe  tau(  34) = (   0.1666652   0.4714034   0.2041376  )
        35           Fe  tau(  35) = (   0.6666640   0.8249560   0.0000000  )
        36           Fe  tau(  36) = (   0.4999978   0.7071052   0.2041376  )
        37           Fe  tau(  37) = (   0.3307394   0.5894524   0.4057984  )
        38           Fe  tau(  38) = (   1.1584558   0.4708203   0.6061482  )
        39           Fe  tau(  39) = (   0.6671439   0.8274292   0.4053888  )
        40           Fe  tau(  40) = (   0.4974820   0.7106282   0.6062117  )
        41           Fe  tau(  41) = (   0.4166640   0.8249560   0.0000000  )
        42           Fe  tau(  42) = (   0.5833315   0.5892543   0.0000000  )
        43           Fe  tau(  43) = (   0.2499978   0.7071052   0.2041376  )
        44           Fe  tau(  44) = (   0.4166652   0.4714034   0.2041376  )
        45           Fe  tau(  45) = (   0.4164663   0.8248037   0.4039055  )
        46           Fe  tau(  46) = (   0.5800715   0.5934920   0.4030364  )
        47           Fe  tau(  47) = (   1.2457669   0.7041012   0.6065939  )
        48           Fe  tau(  48) = (   0.4082550   0.4758307   0.6072775  )
        49           Fe  tau(  49) = (   0.8333315   0.5892543   0.0000000  )
        50           Fe  tau(  50) = (   0.6666652   0.4714034   0.2041376  )
        51           Fe  tau(  51) = (   1.1666640   0.8249560   0.0000000  )
        52           Fe  tau(  52) = (   0.9999978   0.7071052   0.2041376  )
        53           Fe  tau(  53) = (   0.8309418   0.5904319   0.4068368  )
        54           Fe  tau(  54) = (   0.6483004   0.4973721   0.6024232  )
        55           Fe  tau(  55) = (   1.1660042   0.8224414   0.4057891  )
        56           Fe  tau(  56) = (   0.9966937   0.6995543   0.6061145  )
        57           Fe  tau(  57) = (   0.9166640   0.8249560   0.0000000  )
        58           Fe  tau(  58) = (   1.0833315   0.5892543   0.0000000  )
        59           Fe  tau(  59) = (   0.7499978   0.7071052   0.2041376  )
        60           Fe  tau(  60) = (   0.9166652   0.4714034   0.2041376  )
        61           Fe  tau(  61) = (   0.9165456   0.8250294   0.4076429  )
        62           Fe  tau(  62) = (   1.0807468   0.5874373   0.4058584  )
        63           Fe  tau(  63) = (   0.7492890   0.7166001   0.6067028  )
        64           Fe  tau(  64) = (   0.9077833   0.4650771   0.6045057  )
        65           N   tau(  65) = (   0.7501705   0.3536255   0.6386530  )
        66           H   tau(  66) = (   0.4630012   0.8578060   0.7021866  )

     number of k points=    10  Methfessel-Paxton smearing, width (Ry)=  0.0100
                       cart. coord. in units 2pi/alat
        k(    1) = (   0.0000000   0.0000000   0.0000000), wk =   0.0625000
        k(    2) = (   0.0000000   0.2651656   0.0000000), wk =   0.1250000
        k(    3) = (   0.0000000  -0.5303313   0.0000000), wk =   0.0625000
        k(    4) = (   0.2500000  -0.0883878   0.0000000), wk =   0.1250000
        k(    5) = (   0.2500000   0.1767779   0.0000000), wk =   0.1250000
        k(    6) = (   0.2500000  -0.6187190   0.0000000), wk =   0.1250000
        k(    7) = (   0.2500000  -0.3535534   0.0000000), wk =   0.1250000
        k(    8) = (  -0.5000000   0.1767755   0.0000000), wk =   0.0625000
        k(    9) = (  -0.5000000   0.4419412   0.0000000), wk =   0.1250000
        k(   10) = (  -0.5000000  -0.3535558   0.0000000), wk =   0.0625000

     Check: negative core charge=   -0.000039

     Initial potential from superposition of free atoms

     starting charge 1029.97193, renormalised to 1030.00000

     negative rho (up, down):  2.476E-02 2.546E-03
     Starting wfcs are  837 randomized atomic wfcs
     Checking if some PAW data can be deallocated...

     Self-consistent Calculation

     iteration #  1     ecut=    60.00 Ry     beta= 0.20
     Davidson diagonalization with overlap
     c_bands:  1 eigenvalues not converged
     ethr =  1.00E-04,  avg # of iterations = 18.0

     negative rho (up, down):  1.322E-02 3.338E-03

     total energy              =  -21087.55044851 Ry
     Harris-Foulkes estimate   =  -21096.02556911 Ry
[...]
     atom:   56    charge:   12.5861    magn:    2.3453    constr:    0.0000
     atom:   57    charge:   12.5896    magn:    2.3511    constr:    0.0000
     atom:   58    charge:   12.5894    magn:    2.3562    constr:    0.0000
     atom:   59    charge:   12.5774    magn:    2.2078    constr:    0.0000
     atom:   60    charge:   12.5764    magn:    2.2183    constr:    0.0000
     atom:   61    charge:   12.5764    magn:    2.2102    constr:    0.0000
     atom:   62    charge:   12.5801    magn:    2.1886    constr:    0.0000
     atom:   63    charge:   12.5889    magn:    2.3327    constr:    0.0000
     atom:   64    charge:   12.5828    magn:    2.1360    constr:    0.0000
     atom:   65    charge:    3.7482    magn:   -0.1332    constr:    0.0000
     atom:   66    charge:    0.9806    magn:   -0.0236    constr:    0.0000

     End of self-consistent calculation

 ------ SPIN UP ------------

[...]

 ------ SPIN DOWN ----------

[...]

          k = 0.2500-0.3536 0.0000 (128397 PWs)   bands (ev):

[...]

          k =-0.5000-0.3536 0.0000 (128560 PWs)   bands (ev):

   -88.6213 -88.6209 -88.2008 -88.1997 -88.0880 -88.0872 -88.0609 -88.0396
   -88.0317 -87.9673 -87.9625 -87.9524 -87.9482 -87.9420 -87.9377 -87.9361
   -87.9269 -87.9256 -87.9227 -87.9164 -87.9156 -87.9132 -87.9107 -87.9093
   -87.9072 -87.9046 -87.9036 -87.8987 -87.8987 -87.8942 -87.8931 -87.8928
   -87.8919 -87.8915 -87.8888 -87.8815 -87.8777 -87.8766 -87.8719 -87.8719
   -87.8707 -87.8676 -87.8669 -87.8658 -87.8651 -87.8628 -87.8618 -87.8591
   -87.8530 -87.8471 -87.8463 -87.8443 -87.8441 -87.8422 -87.8419 -87.8412
   -87.8390 -87.8383 -87.8381 -87.8352 -87.8227 -87.8201 -87.8184 -87.8163
   -55.1620 -55.1539 -54.6240 -54.6122 -54.5496 -54.5396 -54.5085 -54.5035
   -54.3339 -54.3130 -54.2880 -54.2821 -54.2816 -54.2772 -54.2745 -54.2691
   -54.2467 -54.2460 -54.2337 -54.2321 -54.2303 -54.2233 -54.2128 -54.2122
   -54.2055 -54.2051 -54.2009 -54.1986 -54.1985 -54.1900 -54.1899 -54.1888
   -54.1863 -54.1857 -54.1798 -54.1746 -54.1735 -54.1674 -54.1644 -54.1635
   -54.1607 -54.1600 -54.1538 -54.1515 -54.1504 -54.1468 -54.1460 -54.1444
   -54.1435 -54.1391 -54.1347 -54.1307 -54.1265 -54.1215 -54.1208 -54.1206
   -54.1189 -54.1152 -54.1140 -54.1139 -54.1125 -54.1117 -54.1109 -54.1104
   -54.1075 -54.1058 -54.1052 -54.1036 -54.1020 -54.0973 -54.0941 -54.0918
   -54.0901 -54.0874 -54.0819 -54.0738 -54.0663 -54.0646 -54.0609 -54.0586
   -54.0524 -54.0518 -54.0455 -54.0443 -54.0414 -54.0409 -54.0256 -54.0239
   -54.0228 -54.0203 -54.0193 -54.0149 -54.0140 -54.0085 -54.0068 -54.0066
   -54.0042 -53.9998 -53.9965 -53.9956 -53.9933 -53.9911 -53.9886 -53.9863
   -53.9857 -53.9825 -53.9799 -53.9732 -53.9706 -53.9702 -53.9698 -53.9685
   -53.9660 -53.9648 -53.9636 -53.9614 -53.9610 -53.9609 -53.9580 -53.9557
   -53.9521 -53.9493 -53.9477 -53.9464 -53.9417 -53.9380 -53.9362 -53.9348
   -53.9333 -53.9327 -53.9290 -53.9274 -53.9269 -53.9255 -53.9210 -53.9189
   -53.9146 -53.9131 -53.9127 -53.9082 -53.9077 -53.9065 -53.9056 -53.9054
   -53.9039 -53.9037 -53.9022 -53.9005 -53.8983 -53.8976 -53.8973 -53.8966
   -53.8956 -53.8931 -53.8907 -53.8899 -53.8884 -53.8876 -53.8855 -53.8851
   -53.8799 -53.8797 -53.8791 -53.8766 -53.8737 -53.8736 -53.8723 -53.8714
   -53.8709 -53.8708 -53.8704 -53.8701 -53.8670 -53.8664 -53.8663 -53.8656
   -53.8626 -53.8625 -53.8590 -53.8573 -53.8563 -53.8541 -53.8531 -53.8509
   -53.8499 -53.8483 -53.8468 -53.8448 -53.8415 -53.8411 -53.8376 -53.8353
   -18.5271  -9.9920  -9.9441  -9.4431  -9.4345  -9.0116  -8.9682  -8.8249
    -8.4427  -8.3097  -7.9514  -7.8440  -7.7453  -7.3419  -7.2880  -7.2727
    -7.1301  -6.8971  -6.6602  -6.5042  -6.4889  -6.4720  -6.4594  -6.4521
    -6.3873  -6.3834  -6.3547  -6.3069  -6.2895  -6.2158  -6.0492  -5.9332
    -5.9288  -5.9211  -5.9042  -5.8535  -5.8108  -5.7308  -5.5574  -5.4719
    -5.4673  -5.4571  -5.4257  -5.4138  -5.4003  -5.3611  -5.3300  -5.2999
    -5.2867  -5.2335  -5.1722  -5.1672  -5.1433  -5.1291  -5.1204  -5.1147
    -4.9364  -4.9198  -4.8982  -4.8965  -4.8704  -4.8387  -4.8003  -4.6699
    -4.6250  -4.6088  -4.6038  -4.5612  -4.5548  -4.5518  -4.4816  -4.4413
    -4.4238  -4.4055  -4.3756  -4.3698  -4.3576  -4.3404  -4.3351  -4.3238
    -4.3113  -4.2998  -4.2564  -4.2336  -4.2331  -4.2274  -4.2247  -4.2196
    -4.1943  -4.1878  -4.1861  -4.1529  -4.1436  -4.0506  -4.0184  -4.0165
    -4.0107  -4.0078  -3.9378  -3.9139  -3.8894  -3.8800  -3.8753  -3.8694
    -3.8559  -3.8510  -3.8502  -3.8427  -3.8036  -3.7914  -3.7904  -3.7827
    -3.7827  -3.7746  -3.7739  -3.7588  -3.7571  -3.7502  -3.7419  -3.7397
    -3.7255  -3.7167  -3.7047  -3.7044  -3.6984  -3.6978  -3.6881  -3.6761
    -3.6674  -3.6554  -3.6370  -3.6345  -3.6300  -3.6284  -3.6239  -3.6175
    -3.6059  -3.5998  -3.5805  -3.5782  -3.5393  -3.4552  -3.4201  -3.4069
    -3.3913  -3.3831  -3.3796  -3.3654  -3.3640  -3.3499  -3.3450  -3.3320
    -3.3276  -3.2610  -3.2234  -3.2154  -3.1952  -3.1928  -3.1902  -3.1752
    -3.1535  -3.1491  -3.1350  -3.1207  -3.1175  -3.0906  -3.0529  -3.0248
    -3.0140  -2.9799  -2.9755  -2.9056  -2.8966  -2.8951  -2.8562  -2.8415
    -2.8165  -2.8052  -2.7962  -2.7657  -2.7552  -2.7494  -2.7416  -2.7279
    -2.7263  -2.7155  -2.6815  -2.6788  -2.6318  -2.5008  -2.4792  -2.4712
    -2.3700  -2.3335  -2.3302  -2.2196  -2.1949  -2.1598  -2.1444  -2.0928
    -2.0655  -2.0623  -2.0563  -2.0137  -1.9864  -1.9605  -1.9557  -1.9314
    -1.9186  -1.8954  -1.8556  -1.8287  -1.8128  -1.8125  -1.8116  -1.7839
    -1.7195  -1.7056  -1.7009  -1.6965  -1.6904  -1.6698  -1.6268  -1.6140
[...]
    -1.2584  -1.2221  -1.2209  -1.2112  -1.2073  -1.1960  -1.1655  -1.1590
    -1.1563  -1.1396  -1.1385  -1.1317  -1.1040  -1.1017  -1.0970  -1.0830
    -1.0818  -1.0681  -1.0649  -1.0559  -1.0503  -1.0495  -1.0324  -1.0270
    -1.0265  -0.9988  -0.9947  -0.9917  -0.9844  -0.9745  -0.9680  -0.9637
    -0.9629  -0.9591  -0.9551  -0.9477  -0.9317  -0.9276  -0.9187  -0.9155
    -0.9083  -0.8893  -0.8865  -0.8844  -0.8777  -0.8744  -0.8656  -0.8638
    -0.8594  -0.8375  -0.8272  -0.8235  -0.8155  -0.7926  -0.7823  -0.7807
    -0.7609  -0.7600  -0.7563  -0.7453  -0.7443  -0.7336  -0.7292  -0.6978
    -0.6963  -0.6889  -0.6878  -0.6772  -0.6720  -0.6656  -0.6593  -0.6505
    -0.6477  -0.6475  -0.6418  -0.6388  -0.6339  -0.6290  -0.6118  -0.6009
    -0.6001  -0.5918  -0.5885  -0.5743  -0.5655  -0.5614  -0.5360  -0.5337
    -0.5164  -0.5117  -0.5101  -0.4853  -0.4813  -0.4715  -0.3522  -0.3164
    -0.2906  -0.2652  -0.2355  -0.2198  -0.0849  -0.0640  -0.0514  -0.0453
    -0.0387  -0.0139  -0.0041   0.0113   0.0270   0.0488   0.0561   0.2453
     0.2594   0.2763

     the Fermi energy is    -2.8050 ev

!    total energy              =  -21093.78603745 Ry
     Harris-Foulkes estimate   =  -21093.78603846 Ry
     estimated scf accuracy    <          9.2E-11 Ry

     The total energy is the sum of the following terms:

     one-electron contribution = -743754.88627259 Ry
     hartree contribution      =  371765.92688620 Ry
     xc contribution           =   -2234.32997992 Ry
     ewald contribution        =  358004.34742398 Ry
     Dispersion Correction     =      -1.39572409 Ry
     one-center paw contrib.   =   -4873.45166172 Ry
     smearing contrib. (-TS)   =       0.00329069 Ry

     total magnetization       =   160.47 Bohr mag/cell
     absolute magnetization    =   167.44 Bohr mag/cell

     convergence has been achieved in  12 iterations

     negative rho (up, down):  2.527E-02 1.860E-02

     Forces acting on atoms (cartesian axes, Ry/au):

     atom    1 type  1   force =     0.00008074    0.00069082    0.00882122
     atom    2 type  1   force =     0.00255522   -0.00384165   -0.01542993
     atom    3 type  1   force =    -0.00084899   -0.00072930    0.00855059
     atom    4 type  1   force =     0.00081245    0.00122802   -0.00840169
     atom    5 type  1   force =    -0.00006400    0.00000601   -0.00002500
     atom    6 type  1   force =    -0.00000717    0.00003850    0.00004901
     atom    7 type  1   force =     0.00004109    0.00004576   -0.00005271
     atom    8 type  1   force =    -0.00005084   -0.00000970    0.00003196
     atom    9 type  1   force =     0.00005029    0.00008660    0.00824642
     atom   10 type  1   force =    -0.00067016   -0.00047852    0.00890320
     atom   11 type  1   force =     0.00098332   -0.00028179   -0.00873524
     atom   12 type  1   force =     0.00031719    0.00028370   -0.01304771
     atom   13 type  1   force =     0.00000523   -0.00001615   -0.00000973
     atom   14 type  1   force =    -0.00000243   -0.00000678   -0.00005954
     atom   15 type  1   force =    -0.00003764   -0.00007404    0.00013429
     atom   16 type  1   force =     0.00006107    0.00005161   -0.00008031
     atom   17 type  1   force =    -0.00096080   -0.00049634    0.00851561
     atom   18 type  1   force =     0.00143371    0.00036513   -0.00837405
     atom   19 type  1   force =     0.00071817    0.00066564    0.00857435
     atom   20 type  1   force =    -0.00116944    0.00144627   -0.00282047
     atom   21 type  1   force =     0.00006375    0.00002605   -0.00004644
     atom   22 type  1   force =    -0.00002606   -0.00004569    0.00003855
     atom   23 type  1   force =    -0.00001825   -0.00004728   -0.00004409
     atom   24 type  1   force =     0.00001497    0.00000174    0.00000832
     atom   25 type  1   force =     0.00005264   -0.00000395    0.00744235
     atom   26 type  1   force =    -0.00102978    0.00130604    0.00826483
     atom   27 type  1   force =     0.00138299    0.00091372   -0.00372627
     atom   28 type  1   force =     0.00016979   -0.00097644   -0.00818351
     atom   29 type  1   force =     0.00001225    0.00001454   -0.00013142
     atom   30 type  1   force =     0.00002104    0.00000270   -0.00007630
     atom   31 type  1   force =    -0.00003954   -0.00002199    0.00005158
     atom   32 type  1   force =     0.00011302    0.00003467    0.00010620
     atom   33 type  1   force =     0.00009696   -0.00081736    0.00866397
     atom   34 type  1   force =    -0.00069674   -0.00119505   -0.00853219
     atom   35 type  1   force =     0.00069076   -0.00015767    0.00884631
     atom   36 type  1   force =    -0.00282459    0.00375152   -0.01542358
     atom   37 type  1   force =     0.00004948    0.00001671   -0.00000773
     atom   38 type  1   force =     0.00001392   -0.00003030    0.00004166
     atom   39 type  1   force =    -0.00000956   -0.00006248   -0.00002705
     atom   40 type  1   force =     0.00003569   -0.00001636    0.00005564
     atom   41 type  1   force =     0.00017063    0.00007756    0.00927164
     atom   42 type  1   force =     0.00089504   -0.00140852    0.00830453
     atom   43 type  1   force =    -0.00082594   -0.00051060   -0.01265153
     atom   44 type  1   force =    -0.00088679    0.00048758   -0.00809068
     atom   45 type  1   force =     0.00000868    0.00000328   -0.00005125
     atom   46 type  1   force =     0.00000428    0.00002298   -0.00007996
     atom   47 type  1   force =     0.00008422    0.00006247    0.00001698
     atom   48 type  1   force =     0.00006754    0.00009317    0.00009733
     atom   49 type  1   force =     0.00086113    0.00049300    0.00861424
     atom   50 type  1   force =     0.00102118   -0.00167462   -0.00279920
     atom   51 type  1   force =    -0.00072413    0.00037417    0.00867819
     atom   52 type  1   force =    -0.00137030   -0.00024286   -0.00855165
     atom   53 type  1   force =    -0.00004894    0.00000033   -0.00005169
     atom   54 type  1   force =     0.00000269    0.00001947   -0.00001543
     atom   55 type  1   force =     0.00003801    0.00004591   -0.00000769
     atom   56 type  1   force =    -0.00001192    0.00002254    0.00003406
     atom   57 type  1   force =     0.00007920   -0.00005094    0.00825281
     atom   58 type  1   force =     0.00051222    0.00035107    0.00887383
     atom   59 type  1   force =     0.00006291    0.00102854   -0.00865253
     atom   60 type  1   force =    -0.00126900   -0.00094132   -0.00367824
     atom   61 type  1   force =    -0.00001441    0.00001239   -0.00000933
     atom   62 type  1   force =     0.00000622    0.00000325   -0.00005983
     atom   63 type  1   force =    -0.00007101   -0.00001404    0.00012905
     atom   64 type  1   force =     0.00005930    0.00004908   -0.00000960
     atom   65 type  2   force =     0.00001653    0.00001805    0.00002803
     atom   66 type  3   force =     0.00001292    0.00001119    0.00017220

     Total force =     0.000513     Total SCF correction =     0.000046

     bfgs converged in  12 scf cycles and  11 bfgs steps
     (criteria: energy <  7.3E-07 Ry, force <  3.9E-04 Ry/Bohr)

     End of BFGS Geometry Optimization

     Final energy   =  -21093.7860374492 Ry
Begin final coordinates

ATOMIC_POSITIONS (angstrom)
Fe       1.654912953   1.170200133   0.000000000    0   0   0
Fe       0.000000000   0.000000000   2.026984232    0   0   0
Fe       4.964738858   3.510600399   0.000000000    0   0   0
Fe       3.309825906   2.340400266   2.026984232    0   0   0
Fe       1.680378438   1.166552972   4.026651122
Fe       3.334753161   9.326401447   6.022809758
Fe       4.959762987   3.535076708   4.043961924
Fe       3.395180004   2.335326321   6.026234318
Fe       2.482363858   3.510600399   0.000000000    0   0   0
Fe       4.137287953   1.170200133   0.000000000    0   0   0
Fe       0.827450906   2.340400266   2.026984232    0   0   0
Fe       2.482375000   0.000000000   2.026984232    0   0   0
Fe       2.482824022   3.509619238   4.048700480
Fe       4.161023798   1.187230109   4.032511818
Fe       0.916093585   2.304367799   6.025040658
Fe       2.511703937   0.020699218   6.022077235
Fe       6.619662953   1.170200133   0.000000000    0   0   0
Fe       4.964750000   0.000000000   2.026984232    0   0   0
Fe       9.929488858   3.510600399   0.000000000    0   0   0
Fe       8.274575906   2.340400266   2.026984232    0   0   0
Fe       6.640796866   1.157092072   4.043616295
Fe       4.988317853   0.082087340   6.026415650
Fe       9.932629132   3.484965513   4.040910238
Fe       8.457098655   2.082068801   5.986550927
Fe       7.447113858   3.510600399   0.000000000    0   0   0
Fe       9.102037953   1.170200133   0.000000000    0   0   0
Fe       5.792200906   2.340400266   2.026984232    0   0   0
Fe       7.447125000   0.000000000   2.026984232    0   0   0
Fe       7.446152203   3.509491140   4.059478280
Fe       9.131019902   1.126200848   4.004481936
Fe       5.882655382   2.403722928   6.008039493
Fe      10.769623181   9.266586043   6.031239487
Fe       3.309814764   5.851000664   0.000000000    0   0   0
Fe       1.654901811   4.680800531   2.026984232    0   0   0
Fe       6.619640670   8.191400930   0.000000000    0   0   0
Fe       4.964727717   7.021200797   2.026984232    0   0   0
Fe       3.284007049   5.853545097   4.030304653
Fe      11.502379935   4.676075179   6.022250208
Fe       6.624732871   8.216553197   4.026834699
Fe       4.939853024   7.056277960   6.023194843
Fe       4.137265670   8.191400930   0.000000000    0   0   0
Fe       5.792189764   5.851000664   0.000000000    0   0   0
Fe       2.482352717   7.021200797   2.026984232    0   0   0
Fe       4.137276811   4.680800531   2.026984232    0   0   0
Fe       4.135738670   8.190318371   4.012842071
Fe       5.760274172   5.893055175   4.004722851
Fe      12.369008507   6.990883997   6.026196264
Fe       4.052158610   4.724629132   6.031768227
Fe       8.274564764   5.851000664   0.000000000    0   0   0
Fe       6.619651811   4.680800531   2.026984232    0   0   0
Fe      11.584390670   8.191400930   0.000000000    0   0   0
Fe       9.929477717   7.021200797   2.026984232    0   0   0
Fe       8.251116226   5.862260223   4.041240385
Fe       6.437291900   4.938394453   5.986537645
Fe      11.578245610   8.166135150   4.030125600
Fe       9.897317533   6.945671192   6.021948816
Fe       9.102015670   8.191400930   0.000000000    0   0   0
Fe      10.756939764   5.851000664   0.000000000    0   0   0
Fe       7.447102717   7.021200797   2.026984232    0   0   0
Fe       9.102026811   4.680800531   2.026984232    0   0   0
Fe       9.101135418   8.192051278   4.048618393
Fe      10.731067762   5.832948256   4.030919824
Fe       7.442122409   7.116598751   6.025529393
Fe       9.013214613   4.617472229   6.006713399
N        7.448198864   3.510950522   6.351669108
H        4.600514664   8.519035290   6.976251645
End final coordinates

     Writing output data file Fe_N_H_paper_480c_ESM_p25.save/

     General routines

     Parallel routines

   This run was terminated on:  16:21:35   9Jun2022

   JOB DONE.