     Program PWSCF v.6.7MaX starts on 16Jun2022 at 19:29:31

     K-points division:     npool     =       8
     R & G space division:  proc/nbgrp/npool/nimage =      32
     Waiting for input...
     Reading input from standard input
Warning: card &CELL ignored
Warning: card / ignored

     Current dimensions of program PWSCF are:
     Max number of different atomic species (ntypx) = 10
     Max number of k-points (npk) =  40000
     Max angular momentum in pseudopotentials (lmaxx) =  3
     file Fe.pbe-spn-kjpaw_psl.0.2.1.UPF: wavefunction(s)  3D renormalized

     IMPORTANT: XC functional enforced from input :
     Exchange-correlation= PBE
                           (   1   4   3   4   0   0   0)
     Any further DFT definition will be discarded
     Please, verify this is what you really want

     Parameters for Dispersion (Grimme-D2) Correction:
       atom      VdW radius       C_6

        Fe         2.952        374.666
        N          2.640         42.670
        H          1.892          4.857

     bravais-lattice index     =            0
     lattice parameter (alat)  =      18.7640  a.u.
     unit-cell volume          =   16360.3161 (a.u.)^3
     number of atoms/cell      =           67
     number of atomic types    =            3
     number of electrons       =      1031.00
     number of Kohn-Sham states=          619
     kinetic-energy cutoff     =      60.0000  Ry
     charge density cutoff     =     480.0000  Ry
     scf convergence threshold =      1.0E-08
     mixing beta               =       0.2000
     number of iterations used =           10  local-TF  mixing
     energy convergence thresh.=      7.3E-07
     force convergence thresh. =      3.9E-04
     Exchange-correlation= PBE
                           (   1   4   3   4   0   0   0)
     nstep                     =           50

     Effective Screening Medium Method
     Boundary Conditions: Metal-Slab-Metal
     field strength                   =     0.02 Ry/a.u.
     grid points for fit at edges     =        4

     celldm(1)=  18.764036  celldm(2)=   0.000000  celldm(3)=   0.000000
     celldm(4)=   0.000000  celldm(5)=   0.000000  celldm(6)=   0.000000

     crystal axes: (cart. coord. in units of alat)
               a(1) = (   1.000000   0.000000   0.000000 )
               a(2) = (   0.333330   0.942807   0.000000 )
               a(3) = (   0.000000   0.000000   2.626577 )

     reciprocal axes: (cart. coord. in units 2 pi/alat)
               b(1) = (  1.000000 -0.353551  0.000000 )
               b(2) = (  0.000000  1.060663  0.000000 )
               b(3) = (  0.000000  0.000000  0.380724 )

     PseudoPot. # 1 for Fe read from file:
     ../../SSSP/Fe.pbe-spn-kjpaw_psl.0.2.1.UPF
     MD5 check sum: e86618425769142926afa95317d90200
     Pseudo is Projector augmented-wave + core cor, Zval = 16.0
     Generated using "atomic" code by A. Dal Corso  v.5.0.99 svn rev. 10869
     Shape of augmentation charge: PSQ
     Using radial grid of 1191 points,  6 beta functions with:
                l(1) =   0
                l(2) =   0
                l(3) =   1
                l(4) =   1
                l(5) =   2
                l(6) =   2
     Q(r) pseudized with 0 coefficients

     PseudoPot. # 2 for N  read from file:
     ../../SSSP/N.pbe-n-radius_5.UPF
     MD5 check sum: 16739722b17309cd8fe442a2ace49922
     Pseudo is Ultrasoft + core correction, Zval =  5.0
     Generated using "atomic" code by A. Dal Corso  v.5.1
     Using radial grid of 1085 points,  4 beta functions with:
                l(1) =   0
                l(2) =   0
                l(3) =   1
                l(4) =   1
     Q(r) pseudized with 0 coefficients

     PseudoPot. # 3 for H  read from file:
     ../../SSSP/H.pbe-rrkjus_psl.1.0.0.UPF
     MD5 check sum: f52b6d4d1c606e5624b1dc7b2218f220
     Pseudo is Ultrasoft, Zval =  1.0
     Generated using "atomic" code by A. Dal Corso  v.5.1
     Using radial grid of  929 points,  2 beta functions with:
                l(1) =   0
                l(2) =   0
     Q(r) pseudized with 0 coefficients

     atomic species   valence    mass     pseudopotential
        Fe            16.00    55.84500     Fe( 1.00)
        N              5.00    14.00700     N ( 1.00)
        H              1.00     1.00800     H ( 1.00)

     Starting magnetic structure
     atomic species   magnetization
        Fe           0.100
        N            0.100
        H            0.100

     No symmetry found

   Cartesian axes

     site n.     atom                  positions (alat units)
         1           Fe  tau(   1) = (   0.1666663   0.1178509   0.0000000  )
         2           Fe  tau(   2) = (   0.0000000   0.0000000   0.2041376  )
         3           Fe  tau(   3) = (   0.4999989   0.3535526   0.0000000  )
         4           Fe  tau(   4) = (   0.3333326   0.2357017   0.2041376  )
         5           Fe  tau(   5) = (   0.1689086   0.1177626   0.4054037  )
         6           Fe  tau(   6) = (   0.3344565   0.9421522   0.6046720  )
         7           Fe  tau(   7) = (   0.5011260   0.3549683   0.4071487  )
         8           Fe  tau(   8) = (   0.3394787   0.2351497   0.6056054  )
         9           Fe  tau(   9) = (   0.2499989   0.3535526   0.0000000  )
        10           Fe  tau(  10) = (   0.4166663   0.1178509   0.0000000  )
        11           Fe  tau(  11) = (   0.0833326   0.2357017   0.2041376  )
        12           Fe  tau(  12) = (   0.2500000   0.0000000   0.2041376  )
        13           Fe  tau(  13) = (   0.2500496   0.3534643   0.4070637  )
        14           Fe  tau(  14) = (   0.4191073   0.1195952   0.4062615  )
        15           Fe  tau(  15) = (   0.0873507   0.2338674   0.6043404  )
        16           Fe  tau(  16) = (   0.2516474   0.0011873   0.6057163  )
        17           Fe  tau(  17) = (   0.6666663   0.1178509   0.0000000  )
        18           Fe  tau(  18) = (   0.5000000   0.0000000   0.2041376  )
        19           Fe  tau(  19) = (   0.9999989   0.3535526   0.0000000  )
        20           Fe  tau(  20) = (   0.8333326   0.2357017   0.2041376  )
        21           Fe  tau(  21) = (   0.6683672   0.1184493   0.4071322  )
        22           Fe  tau(  22) = (   0.5015274   0.0059756   0.6056280  )
        23           Fe  tau(  23) = (   0.9987945   0.3520318   0.4069418  )
        24           Fe  tau(  24) = (   0.8425606   0.2225683   0.6029475  )
        25           Fe  tau(  25) = (   0.7499989   0.3535526   0.0000000  )
        26           Fe  tau(  26) = (   0.9166663   0.1178509   0.0000000  )
        27           Fe  tau(  27) = (   0.5833326   0.2357017   0.2041376  )
        28           Fe  tau(  28) = (   0.7500000   0.0000000   0.2041376  )
        29           Fe  tau(  29) = (   0.7499443   0.3534982   0.4029636  )
        30           Fe  tau(  30) = (   0.9185492   0.1149907   0.4042807  )
        31           Fe  tau(  31) = (   0.5927334   0.2423230   0.6094155  )
        32           Fe  tau(  32) = (   1.0845558   0.9385582   0.6044802  )
        33           Fe  tau(  33) = (   0.3333315   0.5892543   0.0000000  )
        34           Fe  tau(  34) = (   0.1666652   0.4714034   0.2041376  )
        35           Fe  tau(  35) = (   0.6666640   0.8249560   0.0000000  )
        36           Fe  tau(  36) = (   0.4999978   0.7071052   0.2041376  )
        37           Fe  tau(  37) = (   0.3311979   0.5893155   0.4056474  )
        38           Fe  tau(  38) = (   1.1606984   0.4711726   0.6052460  )
        39           Fe  tau(  39) = (   0.6673353   0.8271056   0.4054098  )
        40           Fe  tau(  40) = (   0.4997522   0.7084210   0.6046393  )
        41           Fe  tau(  41) = (   0.4166640   0.8249560   0.0000000  )
        42           Fe  tau(  42) = (   0.5833315   0.5892543   0.0000000  )
        43           Fe  tau(  43) = (   1.2499978   0.7071052   0.2041376  )
        44           Fe  tau(  44) = (   0.4166652   0.4714034   0.2041376  )
        45           Fe  tau(  45) = (   0.4165505   0.8248981   0.4045796  )
        46           Fe  tau(  46) = (   0.5812668   0.5919779   0.4042850  )
        47           Fe  tau(  47) = (   1.2472480   0.7051693   0.6057119  )
        48           Fe  tau(  48) = (   0.4130609   0.4740042   0.6045132  )
        49           Fe  tau(  49) = (   0.8333315   0.5892543   0.0000000  )
        50           Fe  tau(  50) = (   0.6666652   0.4714034   0.2041376  )
        51           Fe  tau(  51) = (   1.1666640   0.8249560   0.0000000  )
        52           Fe  tau(  52) = (   0.9999978   0.7071052   0.2041376  )
        53           Fe  tau(  53) = (   0.8314976   0.5886325   0.4069528  )
        54           Fe  tau(  54) = (   0.6573683   0.4844832   0.6029447  )
        55           Fe  tau(  55) = (   1.1660118   0.8229263   0.4056423  )
        56           Fe  tau(  56) = (   0.9978077   0.7015416   0.6052246  )
        57           Fe  tau(  57) = (   0.9166640   0.8249560   0.0000000  )
        58           Fe  tau(  58) = (   1.0833315   0.5892543   0.0000000  )
        59           Fe  tau(  59) = (   0.7499978   0.7071052   0.2041376  )
        60           Fe  tau(  60) = (   0.9166652   0.4714034   0.2041376  )
        61           Fe  tau(  61) = (   0.9166071   0.8250596   0.4070638  )
        62           Fe  tau(  62) = (   1.0808337   0.5874989   0.4060401  )
        63           Fe  tau(  63) = (   0.7496100   0.7115242   0.6043569  )
        64           Fe  tau(  64) = (   0.9074742   0.4648749   0.6093827  )
        65           N   tau(  65) = (   0.7501474   0.3536613   0.7048691  )
        66           H   tau(  66) = (   0.7502862   0.3537825   0.8083333  )
        67           H   tau(  67) = (   0.4595445   0.8553106   0.6995069  )

     number of k points=    10  Methfessel-Paxton smearing, width (Ry)=  0.0100
                       cart. coord. in units 2pi/alat
        k(    1) = (   0.0000000   0.0000000   0.0000000), wk =   0.0625000
        k(    2) = (   0.0000000   0.2651656   0.0000000), wk =   0.1250000
        k(    3) = (   0.0000000  -0.5303313   0.0000000), wk =   0.0625000
        k(    4) = (   0.2500000  -0.0883878   0.0000000), wk =   0.1250000
        k(    5) = (   0.2500000   0.1767779   0.0000000), wk =   0.1250000
        k(    6) = (   0.2500000  -0.6187190   0.0000000), wk =   0.1250000
        k(    7) = (   0.2500000  -0.3535534   0.0000000), wk =   0.1250000
        k(    8) = (  -0.5000000   0.1767755   0.0000000), wk =   0.0625000
        k(    9) = (  -0.5000000   0.4419412   0.0000000), wk =   0.1250000
        k(   10) = (  -0.5000000  -0.3535558   0.0000000), wk =   0.0625000

     Check: negative core charge=   -0.000039
     Generating pointlists ...
     new r_m :   0.0740 (alat units)  1.3885 (a.u.) for type    1
     new r_m :   0.0427 (alat units)  0.8008 (a.u.) for type    2
     new r_m :   0.0427 (alat units)  0.8008 (a.u.) for type    3

     Initial potential from superposition of free atoms

     starting charge 1030.97192, renormalised to 1031.00000

     negative rho (up, down):  1.345E-02 1.100E-02
     Starting wfcs are  838 randomized atomic wfcs
[...]
   -85.7097 -85.7026 -85.7009 -85.7004 -85.7003 -85.7002 -85.6990 -85.6985
   -85.6983 -85.6967 -85.6964 -85.6920 -85.6778 -85.6777 -85.6773 -85.6751
   -52.6993 -52.6845 -52.3601 -52.3551 -52.2145 -52.1982 -52.1588 -52.1580
   -52.1479 -52.1242 -52.0961 -52.0887 -52.0886 -52.0824 -52.0810 -52.0780
   -52.0776 -52.0762 -52.0694 -52.0685 -52.0646 -52.0639 -52.0618 -52.0589
   -52.0577 -52.0538 -52.0520 -52.0479 -52.0479 -52.0419 -52.0374 -52.0370
   -52.0344 -52.0336 -52.0311 -52.0280 -52.0237 -52.0206 -52.0196 -52.0180
   -52.0161 -52.0136 -52.0110 -52.0064 -52.0038 -51.9993 -51.9983 -51.9971
   -51.9911 -51.9852 -51.9832 -51.9786 -51.9782 -51.9762 -51.9762 -51.9731
   -51.9727 -51.9721 -51.9720 -51.9706 -51.9676 -51.9675 -51.9653 -51.9637
   -51.9619 -51.9602 -51.9531 -51.9520 -51.9474 -51.9431 -51.9404 -51.9383
   -51.9335 -51.9254 -51.9206 -51.9193 -51.9169 -51.9113 -51.9045 -51.9024
   -51.9021 -51.9005 -51.8934 -51.8924 -51.8886 -51.8815 -51.8807 -51.8804
   -51.8747 -51.8738 -51.8712 -51.8685 -51.8684 -51.8643 -51.8619 -51.8608
   -51.8604 -51.8579 -51.8546 -51.8528 -51.8512 -51.8503 -51.8428 -51.8427
   -51.8368 -51.8347 -51.8347 -51.8302 -51.8260 -51.8252 -51.8248 -51.8245
   -51.8219 -51.8219 -51.8191 -51.8165 -51.8149 -51.8146 -51.8124 -51.8096
   -51.8074 -51.8061 -51.8038 -51.8012 -51.7953 -51.7951 -51.7938 -51.7935
   -51.7894 -51.7876 -51.7868 -51.7832 -51.7817 -51.7810 -51.7787 -51.7744
   -51.7731 -51.7726 -51.7694 -51.7675 -51.7661 -51.7655 -51.7638 -51.7632
   -51.7626 -51.7611 -51.7590 -51.7583 -51.7572 -51.7566 -51.7556 -51.7551
   -51.7532 -51.7501 -51.7473 -51.7465 -51.7430 -51.7410 -51.7406 -51.7377
   -51.7375 -51.7368 -51.7347 -51.7338 -51.7336 -51.7332 -51.7331 -51.7324
   -51.7321 -51.7305 -51.7296 -51.7287 -51.7283 -51.7256 -51.7219 -51.7212
   -51.7197 -51.7181 -51.7167 -51.7167 -51.7162 -51.7109 -51.7105 -51.7100
   -51.7080 -51.7061 -51.7058 -51.7048 -51.7022 -51.7006 -51.6983 -51.6976
   -17.0292  -8.5430  -7.7934  -7.7595  -7.2493  -7.2141  -6.8320  -6.5282
    -6.1155  -6.0223  -5.7308  -5.5941  -5.5756  -5.1838  -5.1411  -5.1090
    -5.0777  -4.7242  -4.5183  -4.3473  -4.3341  -4.3265  -4.3030  -4.2969
    -4.2543  -4.2205  -4.1986  -4.1954  -4.1591  -4.1545  -3.9336  -3.7997
    -3.7763  -3.7698  -3.7659  -3.7282  -3.6710  -3.5758  -3.4814  -3.3187
    -3.3003  -3.2954  -3.2653  -3.2607  -3.2297  -3.2103  -3.1706  -3.1533
    -3.1503  -3.0937  -3.0562  -3.0216  -3.0155  -2.9929  -2.9707  -2.9412
    -2.9027  -2.7534  -2.7459  -2.7313  -2.7179  -2.7087  -2.6695  -2.5017
    -2.4678  -2.4458  -2.4288  -2.4153  -2.4024  -2.3198  -2.2935  -2.2815
    -2.2530  -2.2315  -2.2158  -2.2015  -2.1991  -2.1905  -2.1748  -2.1731
    -2.1566  -2.1436  -2.1372  -2.1008  -2.0965  -2.0876  -2.0814  -2.0733
    -2.0652  -2.0482  -2.0369  -1.9919  -1.9633  -1.9450  -1.8679  -1.8569
    -1.8494  -1.7918  -1.7453  -1.7397  -1.7254  -1.7249  -1.7186  -1.7077
    -1.6951  -1.6911  -1.6797  -1.6784  -1.6549  -1.6520  -1.6452  -1.6442
    -1.6379  -1.6214  -1.6206  -1.6061  -1.6057  -1.6038  -1.5927  -1.5843
    -1.5818  -1.5772  -1.5709  -1.5660  -1.5554  -1.5534  -1.5441  -1.5355
    -1.5228  -1.5024  -1.5020  -1.4927  -1.4888  -1.4799  -1.4724  -1.4622
    -1.4616  -1.4599  -1.4349  -1.4295  -1.4276  -1.3734  -1.3583  -1.2990
    -1.2621  -1.2313  -1.2209  -1.2076  -1.2040  -1.2011  -1.1849  -1.1841
    -1.1741  -1.1522  -1.1203  -1.0854  -1.0537  -1.0442  -1.0271  -1.0149
    -1.0002  -0.9918  -0.9841  -0.9776  -0.9560  -0.9515  -0.9326  -0.9160
    -0.8258  -0.7921  -0.7768  -0.7655  -0.7470  -0.7397  -0.7328  -0.7185
    -0.7043  -0.6883  -0.6879  -0.6325  -0.6079  -0.5869  -0.5789  -0.5738
    -0.5716  -0.5579  -0.5562  -0.5468  -0.5321  -0.3859  -0.3139  -0.3017
    -0.2860  -0.1857  -0.1839  -0.1636  -0.0034   0.0367   0.0731   0.0914
     0.1048   0.1409   0.1530   0.1609   0.1756   0.2052   0.2074   0.2390
     0.2504   0.2544   0.2739   0.3062   0.3275   0.3497   0.3665   0.3830
     0.3855   0.3970   0.4032   0.4481   0.4578   0.4646   0.4939   0.5432
[...]
     0.8878   0.8919   0.9247   0.9369   0.9691   0.9826   0.9925   1.0049
     1.0092   1.0093   1.0139   1.0260   1.0390   1.0440   1.0609   1.0663
     1.0669   1.0730   1.0797   1.0871   1.0897   1.0942   1.1055   1.1220
     1.1270   1.1310   1.1361   1.1542   1.1654   1.1705   1.1772   1.1816
     1.1826   1.1853   1.1942   1.1965   1.1980   1.2180   1.2250   1.2291
     1.2370   1.2481   1.2520   1.2566   1.2630   1.2658   1.2742   1.2754
     1.2795   1.2866   1.3011   1.3096   1.3450   1.3680   1.3732   1.3796
     1.3886   1.3982   1.3997   1.4002   1.4128   1.4134   1.4342   1.4439
     1.4462   1.4541   1.4549   1.4607   1.4686   1.4703   1.4726   1.4752
     1.4779   1.4821   1.4866   1.4901   1.4924   1.5106   1.5215   1.5256
     1.5301   1.5384   1.5463   1.5515   1.5555   1.5626   1.5720   1.5732
     1.5873   1.6117   1.6344   1.6426   1.6476   1.6548   1.6564   1.6773
     1.7354   1.7677   1.8659   1.8705   1.9742   1.9998   2.0203   2.0719
     2.0878   2.0955   2.1081   2.1283   2.1330   2.1418   2.1494   2.1516
     2.1693   2.1838   2.1898

     the Fermi energy is    -0.6641 ev

!    total energy              =  -21095.02889810 Ry
     estimated scf accuracy    <          5.5E-11 Ry
     smearing contrib. (-TS)   =       0.00223008 Ry
     internal energy E=F+TS    =  -21095.03112818 Ry

     The total energy is F=E-TS. E is the sum of the following terms:
     one-electron contribution = -743979.57686527 Ry
     hartree contribution      =  371959.94236528 Ry
     xc contribution           =   -2234.98172945 Ry
     ewald contribution        =  358034.42790334 Ry
     Dispersion Correction     =      -1.39847891 Ry
     one-center paw contrib.   =   -4873.44432315 Ry

     total magnetization       =   160.85 Bohr mag/cell
     absolute magnetization    =   167.74 Bohr mag/cell

     convergence has been achieved in  16 iterations

     negative rho (up, down):  1.143E-02 1.529E-02

     Forces acting on atoms (cartesian axes, Ry/au):

     atom    1 type  1   force =     0.00053771   -0.00013711    0.00855232
     atom    2 type  1   force =     0.00153970   -0.00230069   -0.01300087
     atom    3 type  1   force =    -0.00063404   -0.00036893    0.00865503
     atom    4 type  1   force =     0.00079981    0.00084135   -0.00784140
     atom    5 type  1   force =    -0.00000068   -0.00001397   -0.00002282
     atom    6 type  1   force =     0.00002599   -0.00003242    0.00002475
     atom    7 type  1   force =     0.00003710    0.00000439   -0.00005712
     atom    8 type  1   force =    -0.00002459    0.00000977    0.00002361
     atom    9 type  1   force =    -0.00001235   -0.00000119    0.00916735
     atom   10 type  1   force =    -0.00022579   -0.00016585    0.00858125
     atom   11 type  1   force =    -0.00020785    0.00121233   -0.00688373
     atom   12 type  1   force =     0.00071231    0.00057140   -0.01119955
     atom   13 type  1   force =    -0.00000409   -0.00000359   -0.00001252
     atom   14 type  1   force =     0.00000049   -0.00000518   -0.00005146
     atom   15 type  1   force =    -0.00000552   -0.00002170    0.00001395
     atom   16 type  1   force =     0.00000087    0.00000097   -0.00000690
     atom   17 type  1   force =    -0.00054038   -0.00043933    0.00856968
     atom   18 type  1   force =     0.00108941    0.00052457   -0.00786586
     atom   19 type  1   force =     0.00056727    0.00039133    0.00867755
     atom   20 type  1   force =     0.00066582   -0.00115436   -0.01077200
     atom   21 type  1   force =     0.00001734    0.00003338   -0.00005354
     atom   22 type  1   force =     0.00000512   -0.00002251    0.00003560
     atom   23 type  1   force =    -0.00002782    0.00000545   -0.00005870
     atom   24 type  1   force =    -0.00006649    0.00011354    0.00012430
     atom   25 type  1   force =     0.00001854    0.00000951    0.00680501
     atom   26 type  1   force =    -0.00068937    0.00082584    0.00968522
     atom   27 type  1   force =    -0.00004978   -0.00008817   -0.00597082
     atom   28 type  1   force =    -0.00092722    0.00069506   -0.00644663
     atom   29 type  1   force =     0.00000759    0.00000454   -0.00007890
     atom   30 type  1   force =     0.00002239   -0.00002330   -0.00006939
     atom   31 type  1   force =     0.00000800    0.00001244    0.00006266
     atom   32 type  1   force =     0.00003630   -0.00000103    0.00001070
     atom   33 type  1   force =    -0.00037099    0.00008358    0.00847209
     atom   34 type  1   force =    -0.00068363   -0.00079298   -0.00803056
     atom   35 type  1   force =     0.00008819    0.00054198    0.00860587
     atom   36 type  1   force =    -0.00174369    0.00232699   -0.01297522
     atom   37 type  1   force =     0.00000156    0.00001849   -0.00002778
     atom   38 type  1   force =     0.00000820   -0.00003741    0.00003427
     atom   39 type  1   force =    -0.00001170    0.00000085   -0.00002180
     atom   40 type  1   force =    -0.00002089    0.00003261    0.00003069
     atom   41 type  1   force =     0.00015478    0.00005747    0.00790594
     atom   42 type  1   force =     0.00055782   -0.00090522    0.00975125
     atom   43 type  1   force =    -0.00112148   -0.00070953   -0.01093789
     atom   44 type  1   force =     0.00031574   -0.00111142   -0.00640282
     atom   45 type  1   force =     0.00001011    0.00000467   -0.00002875
     atom   46 type  1   force =    -0.00001363    0.00002391   -0.00007225
     atom   47 type  1   force =     0.00003246    0.00002074    0.00001898
     atom   48 type  1   force =     0.00001296    0.00002874    0.00000437
     atom   49 type  1   force =     0.00058974    0.00040688    0.00877253
     atom   50 type  1   force =    -0.00079946    0.00090423   -0.01077997
     atom   51 type  1   force =     0.00000796   -0.00039040    0.00843480
     atom   52 type  1   force =    -0.00095483   -0.00031978   -0.00799699
     atom   53 type  1   force =    -0.00000675   -0.00002623   -0.00006066
     atom   54 type  1   force =     0.00008946   -0.00010292    0.00012919
     atom   55 type  1   force =     0.00001917   -0.00000407   -0.00002914
     atom   56 type  1   force =    -0.00002564    0.00002064    0.00002920
     atom   57 type  1   force =    -0.00004424   -0.00001975    0.00917272
     atom   58 type  1   force =    -0.00001322    0.00000231    0.00878884
     atom   59 type  1   force =     0.00107434   -0.00059379   -0.00685034
     atom   60 type  1   force =     0.00018285    0.00007711   -0.00593433
     atom   61 type  1   force =    -0.00000528   -0.00000229   -0.00001053
     atom   62 type  1   force =    -0.00000704   -0.00000819   -0.00003634
     atom   63 type  1   force =    -0.00001661   -0.00000108    0.00001318
     atom   64 type  1   force =    -0.00000715   -0.00000371    0.00004952
     atom   65 type  2   force =     0.00000512    0.00000088   -0.00019310
     atom   66 type  3   force =     0.00001306   -0.00000379    0.00017585
     atom   67 type  3   force =     0.00000692    0.00000391    0.00017370

     Total force =     0.000486     Total SCF correction =     0.000023
     Energy error            =      4.7E-07
     Gradient error          =      1.9E-04

     bfgs converged in  12 scf cycles and  11 bfgs steps
     (criteria: energy <  7.3E-07 Ry, force <  3.9E-04 Ry/Bohr)

     End of BFGS Geometry Optimization

     Final energy   =  -21095.0288981017 Ry

     File ./Fe_NH_H_paper_480c_ESM_p5.bfgs deleted, as requested
Begin final coordinates

ATOMIC_POSITIONS (angstrom)
Fe            1.6549129530        1.1702001330        0.0000000000    0   0   0
Fe            0.0000000000        0.0000000000        2.0269842320    0   0   0
Fe            4.9647388580        3.5106003990        0.0000000000    0   0   0
Fe            3.3098259060        2.3404002660        2.0269842320    0   0   0
Fe            1.6776033711        1.1692157545        4.0287514825
Fe            3.3209245697        9.3545297516        6.0105092938
Fe            4.9754719326        3.5248624137        4.0454289965
Fe            3.3725962313        2.3350287235        6.0223635807
Fe            2.4823638580        3.5106003990        0.0000000000    0   0   0
Fe            4.1372879530        1.1702001330        0.0000000000    0   0   0
Fe            0.8274509060        2.3404002660        2.0269842320    0   0   0
Fe            2.4823750000        0.0000000000        2.0269842320    0   0   0
Fe            2.4829595445        3.5096299004        4.0459531667
Fe            4.1616423268        1.1874571925        4.0370444820
Fe            0.8695366093        2.3222768593        6.0078398744
Fe            2.5001720664        0.0127132255        6.0211829329
Fe            6.6196629530        1.1702001330        0.0000000000    0   0   0
Fe            4.9647500000        0.0000000000        2.0269842320    0   0   0
Fe            9.9294888580        3.5106003990        0.0000000000    0   0   0
Fe            8.2745759060        2.3404002660        2.0269842320    0   0   0
Fe            6.6367863018        1.1754449066        4.0452799364
Fe            4.9806487902        0.0606626176        6.0225303948
Fe            9.9179225601        3.4950682639        4.0434151624
Fe            8.3671620072        2.2084003894        5.9911916725
Fe            7.4471138580        3.5106003990        0.0000000000    0   0   0
Fe            9.1020379530        1.1702001330        0.0000000000    0   0   0
Fe            5.7922009060        2.3404002660        2.0269842320    0   0   0
Fe            7.4471250000        0.0000000000        2.0269842320    0   0   0
Fe            7.4465081553        3.5099687664        4.0026612237
Fe            9.1210085451        1.1412051313        4.0172090239
Fe            5.8851001558        2.4055277767        6.0557850775
Fe           10.7683945419        9.3175171694        6.0103486645
Fe            3.3098147640        5.8510006640        0.0000000000    0   0   0
Fe            1.6549018110        4.6808005310        2.0269842320    0   0   0
Fe            6.6196406700        8.1914009300        0.0000000000    0   0   0
Fe            4.9647277170        7.0212007970        2.0269842320    0   0   0
Fe            3.2884089586        5.8516361967        4.0311870570
Fe           11.5239774349        4.6786249970        6.0180492515
Fe            6.6263051380        8.2130082961        4.0287193638
Fe            4.9618294428        7.0341566486        6.0101636599
Fe            4.1372656700        8.1914009300        0.0000000000    0   0   0
Fe            5.7921897640        5.8510006640        0.0000000000    0   0   0
Fe           12.4118527170        7.0212007970        2.0269842320    0   0   0
Fe            4.1372768110        4.6808005310        2.0269842320    0   0   0
Fe            4.1360657901        8.1907183812        4.0209367257
Fe            5.7713463372        5.8783530062        4.0173030752
Fe           12.3838650997        7.0014927131        6.0213559692
Fe            4.0997404907        4.7063896288        6.0103758482
Fe            8.2745647640        5.8510006640        0.0000000000    0   0   0
Fe            6.6196518110        4.6808005310        2.0269842320    0   0   0
Fe           11.5843906700        8.1914009300        0.0000000000    0   0   0
Fe            9.9294777170        7.0212007970        2.0269842320    0   0   0
Fe            8.2562231013        5.8451895201        4.0435059845
Fe            6.5263055381        4.8118400179        5.9913424449
Fe           11.5778337371        8.1708838126        4.0311698811
Fe            9.9073720999        6.9645758054        6.0179606259
Fe            9.1020156700        8.1914009300        0.0000000000    0   0   0
Fe           10.7569397640        5.8510006640        0.0000000000    0   0   0
Fe            7.4471027170        7.0212007970        2.0269842320    0   0   0
Fe            9.1020268110        4.6808005310        2.0269842320    0   0   0
Fe            9.1013993286        8.1923831265        4.0459460080
Fe           10.7321641357        5.8335100625        4.0345418803
Fe            7.4439995444        7.0667984850        6.0077770695
Fe            9.0114434746        4.6162091109        6.0552954986
N             7.4488763109        3.5116261747        7.0035401772
H             7.4502963222        3.5127741901        8.0300789047
H             4.5642448069        8.4933231338        6.9521732349
End final coordinates

     Writing output data file ./Fe_NH_H_paper_480c_ESM_p5.save/

     General routines

     Parallel routines

   This run was terminated on:   3:18:58  17Jun2022

   JOB DONE.