     Program PWSCF v.6.4.1 starts on  1Jun2022 at 14:32:16

     K-points division:     npool     =       8
     R & G space division:  proc/nbgrp/npool/nimage =      10
     Waiting for input...
     Reading input from standard input
Warning: card &CELL ignored
Warning: card / ignored

     Current dimensions of program PWSCF are:
     Max number of different atomic species (ntypx) = 10
     Max number of k-points (npk) =  40000
     Max angular momentum in pseudopotentials (lmaxx) =  3

     IMPORTANT: XC functional enforced from input :
     Exchange-correlation      = PBE ( 1  4  3  4 0 0)
     Any further DFT definition will be discarded
     Please, verify this is what you really want

               file Fe.pbe-spn-kjpaw_psl.0.2.1.UPF: wavefunction(s)  3D renormalized

     Parameters for Dispersion (Grimme-D2) Correction:
       atom      VdW radius       C_6

        Fe         2.952        374.666
        H          1.892          4.857
        N          2.640         42.670

     bravais-lattice index     =            0
     lattice parameter (alat)  =      18.7640  a.u.
     unit-cell volume          =   16360.3163 (a.u.)^3
     number of atoms/cell      =           66
     number of atomic types    =            3
     number of electrons       =      1030.00
     number of Kohn-Sham states=          618
     kinetic-energy cutoff     =      60.0000  Ry
     charge density cutoff     =     480.0000  Ry
     convergence threshold     =      1.0E-08
     mixing beta               =       0.2000
     number of iterations used =           10  local-TF  mixing
     Exchange-correlation      = PBE ( 1  4  3  4 0 0)
     nstep                     =           50

     celldm(1)=  18.764036  celldm(2)=   0.000000  celldm(3)=   0.000000
     celldm(4)=   0.000000  celldm(5)=   0.000000  celldm(6)=   0.000000

     crystal axes: (cart. coord. in units of alat)
               a(1) = (   1.000000   0.000000   0.000000 )
               a(2) = (   0.333330   0.942807   0.000000 )
               a(3) = (   0.000000   0.000000   2.626577 )

     reciprocal axes: (cart. coord. in units 2 pi/alat)
               b(1) = (  1.000000 -0.353551  0.000000 )
               b(2) = (  0.000000  1.060663  0.000000 )
               b(3) = (  0.000000  0.000000  0.380724 )

     PseudoPot. # 1 for Fe read from file:
     ../../SSSP/Fe.pbe-spn-kjpaw_psl.0.2.1.UPF
     MD5 check sum: e86618425769142926afa95317d90200
     Pseudo is Projector augmented-wave + core cor, Zval = 16.0
     Generated using "atomic" code by A. Dal Corso v.5.0.99 svn rev. 10869
     Shape of augmentation charge: PSQ
     Using radial grid of 1191 points,  6 beta functions with:
                l(1) =   0
                l(2) =   0
                l(3) =   1
                l(4) =   1
                l(5) =   2
                l(6) =   2
     Q(r) pseudized with 0 coefficients

     PseudoPot. # 2 for H  read from file:
     ../../SSSP/H.pbe-rrkjus_psl.1.0.0.UPF
     MD5 check sum: f52b6d4d1c606e5624b1dc7b2218f220
     Pseudo is Ultrasoft, Zval =  1.0
     Generated using "atomic" code by A. Dal Corso v.5.1
     Using radial grid of  929 points,  2 beta functions with:
                l(1) =   0
                l(2) =   0
     Q(r) pseudized with 0 coefficients

     PseudoPot. # 3 for N  read from file:
     ../../SSSP/N.pbe-n-radius_5.UPF
     MD5 check sum: 16739722b17309cd8fe442a2ace49922
     Pseudo is Ultrasoft + core correction, Zval =  5.0
     Generated using "atomic" code by A. Dal Corso v.5.1
     Using radial grid of 1085 points,  4 beta functions with:
                l(1) =   0
                l(2) =   0
                l(3) =   1
                l(4) =   1
     Q(r) pseudized with 0 coefficients

     atomic species   valence    mass     pseudopotential
        Fe            16.00    55.84500     Fe( 1.00)
        H              1.00     1.00800     H ( 1.00)
        N              5.00    14.00700     N ( 1.00)

     Starting magnetic structure
     atomic species   magnetization
        Fe           0.100
        H            0.100
        N            0.100

     No symmetry found

   Cartesian axes

     site n.     atom                  positions (alat units)
         1           Fe  tau(   1) = (   0.1666663   0.1178509   0.0000000  )
         2           Fe  tau(   2) = (   0.0000000   0.0000000   0.2041376  )
         3           Fe  tau(   3) = (   0.4999989   0.3535526   0.0000000  )
         4           Fe  tau(   4) = (   0.3333326   0.2357017   0.2041376  )
         5           Fe  tau(   5) = (   0.1686230   0.1179829   0.4050445  )
         6           Fe  tau(   6) = (   0.3342103   0.9416755   0.6029308  )
         7           Fe  tau(   7) = (   0.5009022   0.3550045   0.4066992  )
         8           Fe  tau(   8) = (   0.3393326   0.2351643   0.6044805  )
         9           Fe  tau(   9) = (   0.2499989   0.3535526   0.0000000  )
        10           Fe  tau(  10) = (   0.4166663   0.1178509   0.0000000  )
        11           Fe  tau(  11) = (   0.0833326   0.2357017   0.2041376  )
        12           Fe  tau(  12) = (   0.2500000   0.0000000   0.2041376  )
        13           Fe  tau(  13) = (   0.2499889   0.3536657   0.4067255  )
        14           Fe  tau(  14) = (   0.4191296   0.1197270   0.4058587  )
        15           Fe  tau(  15) = (   0.0867593   0.2337124   0.6031147  )
        16           Fe  tau(  16) = (   0.2513067   0.0011502   0.6041391  )
        17           Fe  tau(  17) = (   0.6666663   0.1178509   0.0000000  )
        18           Fe  tau(  18) = (   0.5000000   0.0000000   0.2041376  )
        19           Fe  tau(  19) = (   0.9999989   0.3535526   0.0000000  )
        20           Fe  tau(  20) = (   0.8333326   0.2357017   0.2041376  )
        21           Fe  tau(  21) = (   0.6682130   0.1184071   0.4067255  )
        22           Fe  tau(  22) = (   0.5012700   0.0061660   0.6044805  )
        23           Fe  tau(  23) = (   0.9990789   0.3523364   0.4066992  )
        24           Fe  tau(  24) = (   0.8424893   0.2229927   0.6009609  )
        25           Fe  tau(  25) = (   0.7499989   0.3535526   0.0000000  )
        26           Fe  tau(  26) = (   0.9166663   0.1178509   0.0000000  )
        27           Fe  tau(  27) = (   0.5833326   0.2357017   0.2041376  )
        28           Fe  tau(  28) = (   0.7500000   0.0000000   0.2041376  )
        29           Fe  tau(  29) = (   0.7499855   0.3536846   0.4022603  )
        30           Fe  tau(  30) = (   0.9186130   0.1151827   0.4029958  )
        31           Fe  tau(  31) = (   0.5926559   0.2425842   0.6081315  )
        32           Fe  tau(  32) = (   1.0841970   0.9390922   0.6031147  )
        33           Fe  tau(  33) = (   0.3333315   0.5892543   0.0000000  )
        34           Fe  tau(  34) = (   0.1666652   0.4714034   0.2041376  )
        35           Fe  tau(  35) = (   0.6666640   0.8249560   0.0000000  )
        36           Fe  tau(  36) = (   0.4999978   0.7071052   0.2041376  )
        37           Fe  tau(  37) = (   0.3313348   0.5893486   0.4050445  )
        38           Fe  tau(  38) = (   1.1606152   0.4723368   0.6044805  )
        39           Fe  tau(  39) = (   0.6673207   0.8269265   0.4050445  )
        40           Fe  tau(  40) = (   0.4990111   0.7086137   0.6029834  )
        41           Fe  tau(  41) = (   0.4166640   0.8249560   0.0000000  )
        42           Fe  tau(  42) = (   0.5833315   0.5892543   0.0000000  )
        43           Fe  tau(  43) = (   1.2499978   0.7071052   0.2041376  )
        44           Fe  tau(  44) = (   0.4166652   0.4714034   0.2041376  )
        45           Fe  tau(  45) = (   0.4166474   0.8250503   0.4047293  )
        46           Fe  tau(  46) = (   0.5813348   0.5921487   0.4029958  )
        47           Fe  tau(  47) = (   1.2485844   0.7063321   0.6041391  )
        48           Fe  tau(  48) = (   0.4132018   0.4737699   0.6030884  )
        49           Fe  tau(  49) = (   0.8333315   0.5892543   0.0000000  )
        50           Fe  tau(  50) = (   0.6666652   0.4714034   0.2041376  )
        51           Fe  tau(  51) = (   1.1666640   0.8249560   0.0000000  )
        52           Fe  tau(  52) = (   0.9999978   0.7071052   0.2041376  )
        53           Fe  tau(  53) = (   0.8317515   0.5889715   0.4066992  )
        54           Fe  tau(  54) = (   0.6574885   0.4845933   0.6009609  )
        55           Fe  tau(  55) = (   1.1659707   0.8232213   0.4050708  )
        56           Fe  tau(  56) = (   0.9986444   0.7014389   0.6044543  )
        57           Fe  tau(  57) = (   0.9166640   0.8249560   0.0000000  )
        58           Fe  tau(  58) = (   1.0833315   0.5892543   0.0000000  )
        59           Fe  tau(  59) = (   0.7499978   0.7071052   0.2041376  )
        60           Fe  tau(  60) = (   0.9166652   0.4714034   0.2041376  )
        61           Fe  tau(  61) = (   0.9166507   0.8250880   0.4067255  )
        62           Fe  tau(  62) = (   1.0808448   0.5876233   0.4058587  )
        63           Fe  tau(  63) = (   0.7490544   0.7113384   0.6030884  )
        64           Fe  tau(  64) = (   0.9073419   0.4651149   0.6080264  )
        65           H   tau(  65) = (   0.7502489   0.3541183   0.8067795  )
        66           N   tau(  66) = (   0.7501922   0.3540146   0.7029246  )

     number of k points=    10  Methfessel-Paxton smearing, width (Ry)=  0.0100
                       cart. coord. in units 2pi/alat
        k(    1) = (   0.0000000   0.0000000   0.0000000), wk =   0.0625000
        k(    2) = (   0.0000000   0.2651656   0.0000000), wk =   0.1250000
        k(    3) = (   0.0000000  -0.5303313   0.0000000), wk =   0.0625000
        k(    4) = (   0.2500000  -0.0883878   0.0000000), wk =   0.1250000
        k(    5) = (   0.2500000   0.1767779   0.0000000), wk =   0.1250000
        k(    6) = (   0.2500000  -0.6187190   0.0000000), wk =   0.1250000
        k(    7) = (   0.2500000  -0.3535534   0.0000000), wk =   0.1250000
        k(    8) = (  -0.5000000   0.1767755   0.0000000), wk =   0.0625000
        k(    9) = (  -0.5000000   0.4419412   0.0000000), wk =   0.1250000
        k(   10) = (  -0.5000000  -0.3535558   0.0000000), wk =   0.0625000

     Check: negative core charge=   -0.000039

     Initial potential from superposition of free atoms

     starting charge 1029.97193, renormalised to 1030.00000

     negative rho (up, down):  2.452E-02 2.529E-03
     Starting wfcs are  837 randomized atomic wfcs
     Checking if some PAW data can be deallocated...

     Self-consistent Calculation

     iteration #  1     ecut=    60.00 Ry     beta= 0.20
     Davidson diagonalization with overlap
     ethr =  1.00E-04,  avg # of iterations = 11.4

     negative rho (up, down):  1.215E-02 4.200E-03

     total energy              =  -21093.70806552 Ry
     Harris-Foulkes estimate   =  -21094.19792928 Ry
     estimated scf accuracy    <      29.28356705 Ry

     total magnetization       =   134.43 Bohr mag/cell
     absolute magnetization    =   134.69 Bohr mag/cell

[...]

     iteration # 16     ecut=    60.00 Ry     beta= 0.20
     Davidson diagonalization with overlap
[...]
     atom:   57    charge:   12.9409    magn:    2.4299    constr:    0.0000
     atom:   58    charge:   12.9401    magn:    2.4373    constr:    0.0000
     atom:   59    charge:   12.9336    magn:    2.2678    constr:    0.0000
     atom:   60    charge:   12.9329    magn:    2.2680    constr:    0.0000
     atom:   61    charge:   12.9350    magn:    2.2546    constr:    0.0000
     atom:   62    charge:   12.9394    magn:    2.2064    constr:    0.0000
     atom:   63    charge:   12.9454    magn:    2.3913    constr:    0.0000
     atom:   64    charge:   12.9331    magn:    2.3125    constr:    0.0000
     atom:   65    charge:    0.4516    magn:    0.0074    constr:    0.0000
     atom:   66    charge:    1.3381    magn:   -0.0318    constr:    0.0000

     End of self-consistent calculation

 ------ SPIN UP ------------

[...]

 ------ SPIN DOWN ----------

[...]

          k = 0.2500-0.3536 0.0000 (128397 PWs)   bands (ev):

[...]

          k =-0.5000-0.3536 0.0000 (128560 PWs)   bands (ev):

   -83.2639 -83.2622 -82.9112 -82.9088 -82.8445 -82.8426 -82.8145 -82.8092
   -82.7959 -82.7921 -82.7860 -82.7842 -82.7797 -82.7760 -82.7718 -82.7711
   -82.7673 -82.7668 -82.7663 -82.7645 -82.7629 -82.7575 -82.7538 -82.7535
   -82.7502 -82.7463 -82.7459 -82.7454 -82.7447 -82.7445 -82.7440 -82.7428
   -82.7269 -82.7233 -82.7232 -82.7223 -82.7168 -82.7156 -82.7138 -82.7036
   -82.7029 -82.7026 -82.7024 -82.7022 -82.7015 -82.6966 -82.6962 -82.6907
   -82.6906 -82.6820 -82.6806 -82.6806 -82.6801 -82.6800 -82.6794 -82.6787
   -82.6786 -82.6776 -82.6741 -82.6688 -82.6582 -82.6581 -82.6576 -82.6572
   -49.7002 -49.6847 -49.3553 -49.3502 -49.2025 -49.1860 -49.1422 -49.1387
   -49.0735 -49.0721 -49.0703 -49.0699 -49.0643 -49.0633 -49.0626 -49.0551
   -49.0544 -49.0518 -49.0510 -49.0473 -49.0459 -49.0458 -49.0432 -49.0431
   -49.0421 -49.0361 -49.0322 -49.0317 -49.0289 -49.0220 -49.0196 -49.0194
   -49.0181 -49.0093 -49.0035 -49.0034 -49.0032 -49.0023 -48.9970 -48.9944
   -48.9918 -48.9836 -48.9823 -48.9807 -48.9731 -48.9727 -48.9691 -48.9675
   -48.9669 -48.9662 -48.9621 -48.9614 -48.9591 -48.9564 -48.9557 -48.9551
   -48.9527 -48.9512 -48.9499 -48.9485 -48.9469 -48.9463 -48.9461 -48.9423
   -48.9357 -48.9337 -48.9335 -48.9309 -48.9233 -48.9202 -48.9201 -48.9151
   -48.9064 -48.9030 -48.9003 -48.8930 -48.8860 -48.8838 -48.8835 -48.8824
   -48.8804 -48.8728 -48.8727 -48.8691 -48.8641 -48.8602 -48.8568 -48.8536
   -48.8534 -48.8521 -48.8503 -48.8484 -48.8438 -48.8425 -48.8417 -48.8397
   -48.8394 -48.8374 -48.8373 -48.8341 -48.8225 -48.8203 -48.8180 -48.8154
   -48.8140 -48.8101 -48.8082 -48.8075 -48.8071 -48.8057 -48.8038 -48.8028
   -48.8018 -48.8018 -48.7967 -48.7957 -48.7957 -48.7940 -48.7929 -48.7895
   -48.7880 -48.7799 -48.7792 -48.7775 -48.7771 -48.7719 -48.7712 -48.7700
   -48.7672 -48.7659 -48.7657 -48.7653 -48.7586 -48.7550 -48.7528 -48.7521
   -48.7498 -48.7482 -48.7470 -48.7468 -48.7462 -48.7460 -48.7421 -48.7411
   -48.7402 -48.7401 -48.7369 -48.7366 -48.7348 -48.7342 -48.7340 -48.7313
   -48.7276 -48.7268 -48.7244 -48.7237 -48.7235 -48.7216 -48.7188 -48.7180
   -48.7177 -48.7160 -48.7152 -48.7144 -48.7140 -48.7139 -48.7129 -48.7124
   -48.7110 -48.7109 -48.7099 -48.7096 -48.7067 -48.7062 -48.7053 -48.7024
   -48.7018 -48.6994 -48.6993 -48.6990 -48.6987 -48.6920 -48.6911 -48.6908
   -48.6897 -48.6882 -48.6876 -48.6854 -48.6853 -48.6843 -48.6810 -48.6806
   -13.9409  -5.4563  -4.7597  -4.6721  -4.2023  -4.1207  -3.5109  -3.3508
    -3.0871  -2.8087  -2.6960  -2.5466  -2.1735  -2.1559  -2.1086  -2.0587
    -1.7030  -1.6775  -1.3416  -1.3324  -1.3212  -1.3018  -1.2785  -1.2440
    -1.2238  -1.2055  -1.1891  -1.1477  -1.1352  -1.0844  -0.7844  -0.7623
    -0.7541  -0.7524  -0.7188  -0.7091  -0.5602  -0.5187  -0.3024  -0.2844
    -0.2783  -0.2547  -0.2427  -0.2245  -0.2163  -0.1937  -0.1550  -0.1416
    -0.1269  -0.0425  -0.0122  -0.0052   0.0101   0.0164   0.0404   0.1090
     0.2555   0.2626   0.2841   0.2993   0.3109   0.3167   0.5200   0.5400
     0.5523   0.5802   0.5850   0.6088   0.6972   0.7198   0.7410   0.7653
     0.7696   0.8017   0.8102   0.8133   0.8159   0.8234   0.8381   0.8431
     0.8708   0.8787   0.9152   0.9224   0.9291   0.9333   0.9402   0.9443
     0.9471   0.9635   0.9855   1.0572   1.0701   1.1492   1.1543   1.1630
     1.2266   1.2693   1.2869   1.2873   1.2917   1.2987   1.3058   1.3210
     1.3288   1.3346   1.3420   1.3640   1.3659   1.3703   1.3716   1.3787
     1.3874   1.3963   1.4058   1.4130   1.4193   1.4310   1.4319   1.4378
     1.4410   1.4413   1.4462   1.4501   1.4654   1.4675   1.4789   1.4980
     1.5154   1.5196   1.5223   1.5230   1.5339   1.5422   1.5526   1.5543
     1.5560   1.5866   1.5887   1.5939   1.6434   1.6553   1.7394   1.7594
     1.7898   1.8057   1.8158   1.8173   1.8305   1.8354   1.8472   1.8582
     1.8692   1.9233   1.9242   1.9685   1.9715   1.9872   1.9945   2.0012
     2.0122   2.0284   2.0519   2.0608   2.0721   2.0769   2.1096   2.1622
     2.2088   2.2314   2.2537   2.2784   2.3214   2.3250   2.3266   2.3277
     2.3422   2.3459   2.3521   2.3731   2.3755   2.3885   2.4064   2.4295
     2.4365   2.4389   2.4437   2.4742   2.4899   2.7129   2.7247   2.7389
     2.7914   2.8328   2.8355   2.8663   3.0042   3.0468   3.1049   3.1133
     3.1363   3.1793   3.1801   3.2051   3.2097   3.2325   3.2347   3.2760
     3.2790   3.2866   3.2894   3.3305   3.3797   3.3803   3.3974   3.4005
     3.4180   3.4408   3.4422   3.4724   3.4818   3.4909   3.5179   3.5705
[...]
     3.9177   3.9224   3.9619   3.9655   3.9974   4.0064   4.0267   4.0356
     4.0367   4.0368   4.0419   4.0550   4.0665   4.0730   4.0864   4.0958
     4.1065   4.1071   4.1095   4.1098   4.1112   4.1258   4.1292   4.1519
     4.1573   4.1596   4.1674   4.1777   4.1852   4.1922   4.2020   4.2082
     4.2096   4.2112   4.2156   4.2168   4.2194   4.2391   4.2461   4.2476
     4.2629   4.2786   4.2801   4.2810   4.2830   4.2927   4.2937   4.2962
     4.3050   4.3266   4.3296   4.3414   4.3762   4.3962   4.4014   4.4028
     4.4126   4.4223   4.4244   4.4330   4.4434   4.4482   4.4627   4.4716
     4.4728   4.4756   4.4813   4.4885   4.4929   4.4955   4.4988   4.5069
     4.5108   4.5117   4.5119   4.5376   4.5402   4.5480   4.5482   4.5576
     4.5587   4.5640   4.5720   4.5763   4.5781   4.5867   4.5894   4.6074
     4.6352   4.6565   4.6566   4.6813   4.6848   4.7023   4.7709   4.8037
     4.8903   4.8959   4.8975   4.9185   5.0970   5.1073   5.1100   5.1141
     5.1609   5.1757   5.1831   5.1838   5.2035   5.2075   5.2131   5.3388
     5.4562   5.4718

     the Fermi energy is     2.3540 ev

!    total energy              =  -21093.73454701 Ry
     Harris-Foulkes estimate   =  -21093.73454649 Ry
     estimated scf accuracy    <          9.4E-11 Ry

     The total energy is the sum of the following terms:

     one-electron contribution = -167904.51933817 Ry
     hartree contribution      =   84036.64958460 Ry
     xc contribution           =   -2234.27989245 Ry
     ewald contribution        =   69883.24923022 Ry
     Dispersion Correction     =      -1.39263708 Ry
     one-center paw contrib.   =   -4873.44299385 Ry
     smearing contrib. (-TS)   =       0.00149972 Ry

     total magnetization       =   160.97 Bohr mag/cell
     absolute magnetization    =   167.57 Bohr mag/cell

     convergence has been achieved in  11 iterations

     negative rho (up, down):  2.515E-02 1.793E-02

     Forces acting on atoms (cartesian axes, Ry/au):

     atom    1 type  1   force =     0.00051400   -0.00033347    0.00930404
     atom    2 type  1   force =     0.00171224   -0.00240674   -0.01313310
     atom    3 type  1   force =    -0.00035470   -0.00031016    0.00898210
     atom    4 type  1   force =     0.00046190    0.00058216   -0.00826802
     atom    5 type  1   force =    -0.00004713    0.00000139    0.00001988
     atom    6 type  1   force =    -0.00003039    0.00002762    0.00000461
     atom    7 type  1   force =     0.00001131   -0.00004924    0.00000387
     atom    8 type  1   force =     0.00004053    0.00000268    0.00002529
     atom    9 type  1   force =     0.00000475    0.00001475    0.00964039
     atom   10 type  1   force =    -0.00019194   -0.00012979    0.00937185
     atom   11 type  1   force =    -0.00033735    0.00129489   -0.00718704
     atom   12 type  1   force =     0.00094095    0.00076332   -0.01141855
     atom   13 type  1   force =    -0.00000339   -0.00001323    0.00006052
     atom   14 type  1   force =     0.00005429    0.00002912    0.00004916
     atom   15 type  1   force =     0.00010555    0.00004628    0.00002784
     atom   16 type  1   force =    -0.00004618   -0.00005431   -0.00011718
     atom   17 type  1   force =    -0.00040271   -0.00021688    0.00893543
     atom   18 type  1   force =     0.00069557    0.00032445   -0.00826656
     atom   19 type  1   force =     0.00035542    0.00029988    0.00893279
     atom   20 type  1   force =     0.00058856   -0.00078024   -0.01143165
     atom   21 type  1   force =    -0.00003300   -0.00000321    0.00000596
     atom   22 type  1   force =     0.00003199   -0.00000422    0.00002115
     atom   23 type  1   force =     0.00000091    0.00002769    0.00000804
     atom   24 type  1   force =     0.00006290   -0.00010596    0.00002210
     atom   25 type  1   force =     0.00002013   -0.00000641    0.00795722
     atom   26 type  1   force =    -0.00069883    0.00097402    0.00970691
     atom   27 type  1   force =    -0.00010944   -0.00008382   -0.00660631
     atom   28 type  1   force =    -0.00107776    0.00079784   -0.00717830
     atom   29 type  1   force =     0.00000951   -0.00001892   -0.00007361
     atom   30 type  1   force =     0.00000926   -0.00002086    0.00002899
     atom   31 type  1   force =    -0.00002673   -0.00005249   -0.00006340
     atom   32 type  1   force =    -0.00008771   -0.00009317    0.00003014
     atom   33 type  1   force =    -0.00051105    0.00031984    0.00929590
     atom   34 type  1   force =    -0.00050270   -0.00054577   -0.00826046
     atom   35 type  1   force =    -0.00014356    0.00057830    0.00931533
     atom   36 type  1   force =    -0.00183190    0.00258550   -0.01314268
     atom   37 type  1   force =     0.00004912   -0.00001630    0.00002750
     atom   38 type  1   force =    -0.00001925   -0.00003880    0.00002851
     atom   39 type  1   force =    -0.00000093   -0.00005884    0.00002681
     atom   40 type  1   force =     0.00004592   -0.00006992    0.00003789
     atom   41 type  1   force =     0.00000505   -0.00000391    0.00815334
     atom   42 type  1   force =     0.00069909   -0.00095314    0.00977845
     atom   43 type  1   force =    -0.00101857   -0.00061025   -0.01142291
     atom   44 type  1   force =     0.00032813   -0.00122591   -0.00717322
     atom   45 type  1   force =     0.00000666   -0.00001801   -0.00003522
     atom   46 type  1   force =     0.00000072   -0.00000368    0.00004858
     atom   47 type  1   force =     0.00006083    0.00002030   -0.00011254
     atom   48 type  1   force =    -0.00007502   -0.00008868    0.00001038
     atom   49 type  1   force =     0.00041327    0.00022265    0.00899805
     atom   50 type  1   force =    -0.00050988    0.00075614   -0.01147927
     atom   51 type  1   force =     0.00015333   -0.00060683    0.00931074
     atom   52 type  1   force =    -0.00069504   -0.00019869   -0.00826016
     atom   53 type  1   force =     0.00003492   -0.00002802   -0.00000088
     atom   54 type  1   force =    -0.00004973    0.00005736    0.00002533
     atom   55 type  1   force =     0.00000911    0.00004004    0.00002215
     atom   56 type  1   force =    -0.00002452   -0.00004764    0.00002380
     atom   57 type  1   force =    -0.00004413   -0.00001707    0.00964452
     atom   58 type  1   force =     0.00018358    0.00014623    0.00936372
     atom   59 type  1   force =     0.00106982   -0.00068127   -0.00717025
     atom   60 type  1   force =     0.00014303    0.00010746   -0.00661436
     atom   61 type  1   force =     0.00000106   -0.00000095    0.00006076
     atom   62 type  1   force =    -0.00005580   -0.00004591    0.00005234
     atom   63 type  1   force =     0.00009744    0.00002387    0.00000740
     atom   64 type  1   force =     0.00003510   -0.00000642   -0.00006333
     atom   65 type  2   force =    -0.00001479   -0.00004663    0.00001442
     atom   66 type  3   force =    -0.00001185   -0.00004804    0.00009481

     Total force =     0.000460     Total SCF correction =     0.000048
     SCF correction compared to forces is large: reduce conv_thr to get better values

     bfgs converged in  15 scf cycles and  14 bfgs steps
     (criteria: energy <  7.3E-07 Ry, force <  3.9E-04 Ry/Bohr)

     End of BFGS Geometry Optimization

     Final energy   =  -21093.7345470074 Ry
Begin final coordinates

ATOMIC_POSITIONS (angstrom)
Fe       1.654912953   1.170200133   0.000000000    0   0   0
Fe       0.000000000   0.000000000   2.026984232    0   0   0
Fe       4.964738858   3.510600399   0.000000000    0   0   0
Fe       3.309825906   2.340400266   2.026984232    0   0   0
Fe       1.674679919   1.170053949   4.024411147
Fe       3.317801728   9.351269853   5.993436626
Fe       4.975106178   3.522498291   4.040468915
Fe       3.364323758   2.337116375   6.011570520
Fe       2.482363858   3.510600399   0.000000000    0   0   0
Fe       4.137287953   1.170200133   0.000000000    0   0   0
Fe       0.827450906   2.340400266   2.026984232    0   0   0
Fe       2.482375000   0.000000000   2.026984232    0   0   0
Fe       2.482386627   3.510976849   4.039163398
Fe       4.160746440   1.187307773   4.031725372
Fe       0.858930488   2.322989476   5.996829394
Fe       2.495285462   0.009558553   6.011073605
Fe       6.619662953   1.170200133   0.000000000    0   0   0
Fe       4.964750000   0.000000000   2.026984232    0   0   0
Fe       9.929488858   3.510600399   0.000000000    0   0   0
Fe       8.274575906   2.340400266   2.026984232    0   0   0
Fe       6.633968580   1.176700994   4.040234488
Fe       4.979631427   0.053402158   6.011854785
Fe       9.919367934   3.499741984   4.040201213
Fe       8.361155758   2.219376755   5.978767999
Fe       7.447113858   3.510600399   0.000000000    0   0   0
Fe       9.102037953   1.170200133   0.000000000    0   0   0
Fe       5.792200906   2.340400266   2.026984232    0   0   0
Fe       7.447125000   0.000000000   2.026984232    0   0   0
Fe       7.447359676   3.511010964   3.999610575
Fe       9.119204612   1.146597481   4.006210360
Fe       5.881133685   2.403969580   6.051209801
Fe      10.763925137   9.327156784   5.996840154
Fe       3.309814764   5.851000664   0.000000000    0   0   0
Fe       1.654901811   4.680800531   2.026984232    0   0   0
Fe       6.619640670   8.191400930   0.000000000    0   0   0
Fe       4.964727717   7.021200797   2.026984232    0   0   0
Fe       3.290354959   5.851811766   4.024457302
Fe      11.530561855   4.685244835   6.011771178
Fe       6.625954851   8.210523307   4.024439285
Fe       4.957169753   7.032788554   5.992235275
Fe       4.137265670   8.191400930   0.000000000    0   0   0
Fe       5.792189764   5.851000664   0.000000000    0   0   0
Fe      12.411852717   7.021200797   2.026984232    0   0   0
Fe       4.137276811   4.680800531   2.026984232    0   0   0
Fe       4.137290376   8.192009146   4.021148719
Fe       5.775466288   5.875302535   4.005907459
Fe      12.399440533   7.012910195   6.010975865
Fe       4.106168386   4.699621818   5.997526219
Fe       8.274564764   5.851000664   0.000000000    0   0   0
Fe       6.619651811   4.680800531   2.026984232    0   0   0
Fe      11.584390670   8.191400930   0.000000000    0   0   0
Fe       9.929477717   7.021200797   2.026984232    0   0   0
Fe       8.260634086   5.845751495   4.040490928
Fe       6.533566359   4.804030381   5.978692073
Fe      11.578533510   8.173229531   4.024390693
Fe       9.915498686   6.969762047   6.011449514
Fe       9.102015670   8.191400930   0.000000000    0   0   0
Fe      10.756939764   5.851000664   0.000000000    0   0   0
Fe       7.447102717   7.021200797   2.026984232    0   0   0
Fe       9.102026811   4.680800531   2.026984232    0   0   0
Fe       9.102294244   8.192084710   4.039168267
Fe      10.733756719   5.835068683   4.031726277
Fe       7.440762206   7.057972158   5.997514618
Fe       9.014331283   4.619330483   6.051015249
H        7.449048210   3.513524238   8.026133271
N        7.448923264   3.512949664   6.997874877
End final coordinates

     Writing output data file Fe_NH_paper_480c.save/

     General routines

     Parallel routines

   This run was terminated on:  15:10:57   2Jun2022

   JOB DONE.