     Program PWSCF v.6.4.1 starts on 12Jun2022 at 21: 2:11

     K-points division:     npool     =       8
     R & G space division:  proc/nbgrp/npool/nimage =      20
     Waiting for input...
     Reading input from standard input
Warning: card &CELL ignored
Warning: card / ignored

     Current dimensions of program PWSCF are:
     Max number of different atomic species (ntypx) = 10
     Max number of k-points (npk) =  40000
     Max angular momentum in pseudopotentials (lmaxx) =  3

     IMPORTANT: XC functional enforced from input :
     Exchange-correlation      = PBE ( 1  4  3  4 0 0)
     Any further DFT definition will be discarded
     Please, verify this is what you really want

               file Fe.pbe-spn-kjpaw_psl.0.2.1.UPF: wavefunction(s)  3D renormalized

     Parameters for Dispersion (Grimme-D2) Correction:
       atom      VdW radius       C_6

        Fe         2.952        374.666
        N          2.640         42.670
        H          1.892          4.857

     bravais-lattice index     =            0
     lattice parameter (alat)  =      18.7640  a.u.
     unit-cell volume          =   16360.3163 (a.u.)^3
     number of atoms/cell      =           67
     number of atomic types    =            3
     number of electrons       =      1031.00
     number of Kohn-Sham states=          619
     kinetic-energy cutoff     =      60.0000  Ry
     charge density cutoff     =     480.0000  Ry
     convergence threshold     =      1.0E-08
     mixing beta               =       0.2000
     number of iterations used =           10  local-TF  mixing
     Exchange-correlation      = PBE ( 1  4  3  4 0 0)
     nstep                     =           50

     Effective Screening Medium Method
     Boundary Conditions: Metal-Slab-Metal
     field strength                   =    -0.01 Ry/a.u.
     grid points for fit at edges     =        4

     celldm(1)=  18.764036  celldm(2)=   0.000000  celldm(3)=   0.000000
     celldm(4)=   0.000000  celldm(5)=   0.000000  celldm(6)=   0.000000

     crystal axes: (cart. coord. in units of alat)
               a(1) = (   1.000000   0.000000   0.000000 )
               a(2) = (   0.333330   0.942807   0.000000 )
               a(3) = (   0.000000   0.000000   2.626577 )

     reciprocal axes: (cart. coord. in units 2 pi/alat)
               b(1) = (  1.000000 -0.353551  0.000000 )
               b(2) = (  0.000000  1.060663  0.000000 )
               b(3) = (  0.000000  0.000000  0.380724 )

     PseudoPot. # 1 for Fe read from file:
     ../../SSSP/Fe.pbe-spn-kjpaw_psl.0.2.1.UPF
     MD5 check sum: e86618425769142926afa95317d90200
     Pseudo is Projector augmented-wave + core cor, Zval = 16.0
     Generated using "atomic" code by A. Dal Corso v.5.0.99 svn rev. 10869
     Shape of augmentation charge: PSQ
     Using radial grid of 1191 points,  6 beta functions with:
                l(1) =   0
                l(2) =   0
                l(3) =   1
                l(4) =   1
                l(5) =   2
                l(6) =   2
     Q(r) pseudized with 0 coefficients

     PseudoPot. # 2 for N  read from file:
     ../../SSSP/N.pbe-n-radius_5.UPF
     MD5 check sum: 16739722b17309cd8fe442a2ace49922
     Pseudo is Ultrasoft + core correction, Zval =  5.0
     Generated using "atomic" code by A. Dal Corso v.5.1
     Using radial grid of 1085 points,  4 beta functions with:
                l(1) =   0
                l(2) =   0
                l(3) =   1
                l(4) =   1
     Q(r) pseudized with 0 coefficients

     PseudoPot. # 3 for H  read from file:
     ../../SSSP/H.pbe-rrkjus_psl.1.0.0.UPF
     MD5 check sum: f52b6d4d1c606e5624b1dc7b2218f220
     Pseudo is Ultrasoft, Zval =  1.0
     Generated using "atomic" code by A. Dal Corso v.5.1
     Using radial grid of  929 points,  2 beta functions with:
                l(1) =   0
                l(2) =   0
     Q(r) pseudized with 0 coefficients

     atomic species   valence    mass     pseudopotential
        Fe            16.00    55.84500     Fe( 1.00)
        N              5.00    14.00700     N ( 1.00)
        H              1.00     1.00800     H ( 1.00)

     Starting magnetic structure
     atomic species   magnetization
        Fe           0.100
        N            0.100
        H            0.100

     No symmetry found

   Cartesian axes

     site n.     atom                  positions (alat units)
         1           Fe  tau(   1) = (   0.1666663   0.1178509   0.0000000  )
         2           Fe  tau(   2) = (   0.0000000   0.0000000   0.2041376  )
         3           Fe  tau(   3) = (   0.4999989   0.3535526   0.0000000  )
         4           Fe  tau(   4) = (   0.3333326   0.2357017   0.2041376  )
         5           Fe  tau(   5) = (   0.1659469   0.1176111   0.4051778  )
         6           Fe  tau(   6) = (   0.3326774   0.9437552   0.6041133  )
         7           Fe  tau(   7) = (   0.4995314   0.3539857   0.4039182  )
         8           Fe  tau(   8) = (   0.3327696   0.2348883   0.6042468  )
         9           Fe  tau(   9) = (   0.2499989   0.3535526   0.0000000  )
        10           Fe  tau(  10) = (   0.4166663   0.1178509   0.0000000  )
        11           Fe  tau(  11) = (   0.0833326   0.2357017   0.2041376  )
        12           Fe  tau(  12) = (   0.2500000   0.0000000   0.2041376  )
        13           Fe  tau(  13) = (   0.2500040   0.3535498   0.4054794  )
        14           Fe  tau(  14) = (   0.4158894   0.1173033   0.4045494  )
        15           Fe  tau(  15) = (   0.0820556   0.2361265   0.6031108  )
        16           Fe  tau(  16) = (   0.2495625  -0.0002917   0.6052245  )
        17           Fe  tau(  17) = (   0.6666663   0.1178509   0.0000000  )
        18           Fe  tau(  18) = (   0.5000000   0.0000000   0.2041376  )
        19           Fe  tau(  19) = (   0.9999989   0.3535526   0.0000000  )
        20           Fe  tau(  20) = (   0.8333326   0.2357017   0.2041376  )
        21           Fe  tau(  21) = (   0.6669204   0.1172533   0.4039212  )
        22           Fe  tau(  22) = (   0.4990531  -0.0002644   0.6042086  )
        23           Fe  tau(  23) = (   1.0004862   0.3531177   0.4039164  )
        24           Fe  tau(  24) = (   0.8337778   0.2351175   0.6127879  )
        25           Fe  tau(  25) = (   0.7499989   0.3535526   0.0000000  )
        26           Fe  tau(  26) = (   0.9166663   0.1178509   0.0000000  )
        27           Fe  tau(  27) = (   0.5833326   0.2357017   0.2041376  )
        28           Fe  tau(  28) = (   0.7500000   0.0000000   0.2041376  )
        29           Fe  tau(  29) = (   0.7500131   0.3535440   0.4072842  )
        30           Fe  tau(  30) = (   0.9155831   0.1193857   0.4075395  )
        31           Fe  tau(  31) = (   0.5783441   0.2321719   0.5970314  )
        32           Fe  tau(  32) = (   1.0833832   0.9441686   0.6031127  )
        33           Fe  tau(  33) = (   0.3333315   0.5892543   0.0000000  )
        34           Fe  tau(  34) = (   0.1666652   0.4714034   0.2041376  )
        35           Fe  tau(  35) = (   0.6666640   0.8249560   0.0000000  )
        36           Fe  tau(  36) = (   0.4999978   0.7071052   0.2041376  )
        37           Fe  tau(  37) = (   0.3340416   0.5895146   0.4051839  )
        38           Fe  tau(  38) = (   1.1672537   0.4722186   0.6042084  )
        39           Fe  tau(  39) = (   0.6661837   0.8243868   0.4051812  )
        40           Fe  tau(  40) = (   0.5006285   0.7062097   0.6040795  )
        41           Fe  tau(  41) = (   0.4166640   0.8249560   0.0000000  )
        42           Fe  tau(  42) = (   0.5833315   0.5892543   0.0000000  )
        43           Fe  tau(  43) = (   0.2499978   0.7071052   0.2041376  )
        44           Fe  tau(  44) = (   0.4166652   0.4714034   0.2041376  )
        45           Fe  tau(  45) = (   0.4166452   0.8249897   0.4057805  )
        46           Fe  tau(  46) = (   0.5844057   0.5877497   0.4075311  )
        47           Fe  tau(  47) = (   1.2504327   0.7074244   0.6052235  )
        48           Fe  tau(  48) = (   0.4179751   0.4709968   0.6031410  )
        49           Fe  tau(  49) = (   0.8333315   0.5892543   0.0000000  )
        50           Fe  tau(  50) = (   0.6666652   0.4714034   0.2041376  )
        51           Fe  tau(  51) = (   1.1666640   0.8249560   0.0000000  )
        52           Fe  tau(  52) = (   0.9999978   0.7071052   0.2041376  )
        53           Fe  tau(  53) = (   0.8330940   0.5898506   0.4039165  )
        54           Fe  tau(  54) = (   0.6663009   0.4719620   0.6127536  )
        55           Fe  tau(  55) = (   1.1671405   0.8255567   0.4051807  )
        56           Fe  tau(  56) = (   1.0009605   0.7073708   0.6042382  )
        57           Fe  tau(  57) = (   0.9166640   0.8249560   0.0000000  )
        58           Fe  tau(  58) = (   1.0833315   0.5892543   0.0000000  )
        59           Fe  tau(  59) = (   0.7499978   0.7071052   0.2041376  )
        60           Fe  tau(  60) = (   0.9166652   0.4714034   0.2041376  )
        61           Fe  tau(  61) = (   0.9166718   0.8249618   0.4054780  )
        62           Fe  tau(  62) = (   1.0841179   0.5898081   0.4045489  )
        63           Fe  tau(  63) = (   0.7499449   0.7057654   0.6031249  )
        64           Fe  tau(  64) = (   0.9216800   0.4749338   0.5970275  )
        65           N   tau(  65) = (   0.7501346   0.3536354   0.7529466  )
        66           H   tau(  66) = (   0.8168477   0.4009022   0.8166592  )
        67           H   tau(  67) = (   0.6834358   0.3064220   0.8167099  )

     number of k points=    10  Methfessel-Paxton smearing, width (Ry)=  0.0100
                       cart. coord. in units 2pi/alat
        k(    1) = (   0.0000000   0.0000000   0.0000000), wk =   0.0625000
        k(    2) = (   0.0000000   0.2651656   0.0000000), wk =   0.1250000
        k(    3) = (   0.0000000  -0.5303313   0.0000000), wk =   0.0625000
        k(    4) = (   0.2500000  -0.0883878   0.0000000), wk =   0.1250000
        k(    5) = (   0.2500000   0.1767779   0.0000000), wk =   0.1250000
        k(    6) = (   0.2500000  -0.6187190   0.0000000), wk =   0.1250000
        k(    7) = (   0.2500000  -0.3535534   0.0000000), wk =   0.1250000
        k(    8) = (  -0.5000000   0.1767755   0.0000000), wk =   0.0625000
        k(    9) = (  -0.5000000   0.4419412   0.0000000), wk =   0.1250000
        k(   10) = (  -0.5000000  -0.3535558   0.0000000), wk =   0.0625000

     Check: negative core charge=   -0.000039

     Initial potential from superposition of free atoms

     starting charge 1030.97192, renormalised to 1031.00000

     negative rho (up, down):  2.438E-02 2.557E-03
     Starting wfcs are  838 randomized atomic wfcs
     Checking if some PAW data can be deallocated...

     Self-consistent Calculation

     iteration #  1     ecut=    60.00 Ry     beta= 0.20
     Davidson diagonalization with overlap
     c_bands:  1 eigenvalues not converged
     c_bands:  1 eigenvalues not converged
     ethr =  1.00E-04,  avg # of iterations = 18.9

     negative rho (up, down):  1.282E-02 3.415E-03

[...]
     atom:   60    charge:   13.2711    magn:    2.3196    constr:    0.0000
     atom:   61    charge:   13.2751    magn:    2.3011    constr:    0.0000
     atom:   62    charge:   13.2744    magn:    2.2870    constr:    0.0000
     atom:   63    charge:   13.2707    magn:    2.5011    constr:    0.0000
     atom:   64    charge:   13.2853    magn:    2.4602    constr:    0.0000
     atom:   65    charge:    1.3521    magn:   -0.0019    constr:    0.0000
     atom:   66    charge:    0.4363    magn:    0.0079    constr:    0.0000
     atom:   67    charge:    0.4364    magn:    0.0079    constr:    0.0000

     End of self-consistent calculation

 ------ SPIN UP ------------

[...]

 ------ SPIN DOWN ----------

[...]

          k = 0.2500-0.3536 0.0000 (128397 PWs)   bands (ev):

[...]

          k =-0.5000-0.3536 0.0000 (128560 PWs)   bands (ev):

   -92.0383 -92.0350 -91.8208 -91.8198 -91.7831 -91.7739 -91.7635 -91.7624
   -91.7547 -91.7516 -91.7437 -91.7402 -91.7399 -91.7356 -91.7329 -91.7326
   -91.7323 -91.7300 -91.7248 -91.7214 -91.7196 -91.7192 -91.7174 -91.7158
   -91.7107 -91.7082 -91.7062 -91.7043 -91.7030 -91.7025 -91.6944 -91.6917
   -91.6884 -91.6859 -91.6828 -91.6723 -91.6696 -91.6672 -91.6644 -91.6629
   -91.6611 -91.6607 -91.6577 -91.6576 -91.6520 -91.6432 -91.6432 -91.6426
   -91.6402 -91.6398 -91.6395 -91.6387 -91.6372 -91.6368 -91.6357 -91.6349
   -91.6293 -91.6281 -91.6236 -91.6180 -91.6162 -91.6146 -91.6139 -91.6129
   -58.3665 -58.3496 -58.1532 -58.1452 -58.0635 -58.0583 -58.0472 -58.0449
   -58.0414 -58.0316 -58.0287 -58.0278 -58.0247 -58.0203 -58.0196 -58.0164
   -58.0148 -58.0145 -58.0103 -58.0087 -58.0067 -58.0037 -58.0029 -57.9998
   -57.9988 -57.9972 -57.9959 -57.9929 -57.9848 -57.9841 -57.9713 -57.9679
   -57.9674 -57.9627 -57.9600 -57.9586 -57.9565 -57.9516 -57.9434 -57.9406
   -57.9405 -57.9405 -57.9404 -57.9337 -57.9316 -57.9294 -57.9274 -57.9262
   -57.9259 -57.9243 -57.9199 -57.9167 -57.9166 -57.9151 -57.9121 -57.9108
   -57.9067 -57.9057 -57.9054 -57.9046 -57.9036 -57.9014 -57.8998 -57.8986
   -57.8871 -57.8774 -57.8770 -57.8735 -57.8727 -57.8673 -57.8663 -57.8538
   -57.8537 -57.8536 -57.8457 -57.8434 -57.8424 -57.8419 -57.8364 -57.8287
   -57.8268 -57.8249 -57.8224 -57.8192 -57.8163 -57.8161 -57.8136 -57.8131
   -57.8128 -57.8105 -57.8068 -57.8025 -57.7994 -57.7993 -57.7964 -57.7924
   -57.7919 -57.7881 -57.7878 -57.7829 -57.7785 -57.7712 -57.7707 -57.7707
   -57.7690 -57.7656 -57.7655 -57.7638 -57.7632 -57.7624 -57.7600 -57.7551
   -57.7544 -57.7520 -57.7507 -57.7499 -57.7485 -57.7456 -57.7432 -57.7429
   -57.7422 -57.7416 -57.7397 -57.7336 -57.7313 -57.7301 -57.7289 -57.7264
   -57.7250 -57.7234 -57.7223 -57.7162 -57.7107 -57.7089 -57.7081 -57.7066
   -57.7043 -57.7039 -57.7025 -57.7013 -57.6988 -57.6988 -57.6981 -57.6965
   -57.6951 -57.6932 -57.6918 -57.6906 -57.6901 -57.6887 -57.6866 -57.6860
   -57.6829 -57.6826 -57.6804 -57.6797 -57.6794 -57.6760 -57.6755 -57.6745
   -57.6739 -57.6736 -57.6730 -57.6718 -57.6706 -57.6702 -57.6689 -57.6680
   -57.6669 -57.6653 -57.6644 -57.6640 -57.6617 -57.6600 -57.6589 -57.6585
   -57.6581 -57.6564 -57.6559 -57.6544 -57.6517 -57.6506 -57.6504 -57.6473
   -57.6463 -57.6442 -57.6441 -57.6439 -57.6419 -57.6412 -57.6410 -57.6394
   -23.8480 -14.8749 -13.8240 -13.7222 -13.3706 -13.1467 -13.0334 -12.4186
   -12.2757 -11.9227 -11.7800 -11.2038 -11.1407 -11.1338 -11.1204 -10.7904
   -10.7162 -10.6296 -10.2952 -10.2862 -10.2843 -10.2735 -10.2603 -10.2451
   -10.1655 -10.1620 -10.1606 -10.1548 -10.0836 -10.0577  -9.7378  -9.7360
    -9.7247  -9.7207  -9.6950  -9.6737  -9.5118  -9.4937  -9.2628  -9.2573
    -9.2278  -9.2099  -9.2063  -9.1906  -9.1640  -9.1560  -9.1332  -9.1120
    -9.1062  -9.0833  -8.9715  -8.9692  -8.9578  -8.9524  -8.9475  -8.8942
    -8.7060  -8.6897  -8.6794  -8.6759  -8.6649  -8.6559  -8.4525  -8.4227
    -8.4075  -8.3977  -8.3554  -8.3519  -8.2611  -8.2430  -8.1848  -8.1729
    -8.1713  -8.1610  -8.1514  -8.1506  -8.1447  -8.1409  -8.1393  -8.1342
    -8.0677  -8.0530  -8.0464  -8.0392  -8.0368  -8.0355  -8.0318  -8.0257
    -8.0219  -8.0157  -8.0130  -7.9480  -7.8212  -7.8116  -7.7975  -7.7958
    -7.6970  -7.6822  -7.6797  -7.6782  -7.6554  -7.6536  -7.6487  -7.6292
    -7.6263  -7.6159  -7.6072  -7.6027  -7.5991  -7.5965  -7.5863  -7.5783
    -7.5720  -7.5686  -7.5549  -7.5478  -7.5409  -7.5355  -7.5353  -7.5323
    -7.5281  -7.5232  -7.5206  -7.5112  -7.4914  -7.4776  -7.4722  -7.4477
    -7.4421  -7.4368  -7.4306  -7.4268  -7.4233  -7.4209  -7.4168  -7.4154
    -7.4133  -7.4046  -7.3948  -7.3543  -7.3454  -7.3391  -7.2223  -7.2117
    -7.1612  -7.1606  -7.1570  -7.1569  -7.1396  -7.1188  -7.1061  -7.0853
    -7.0849  -7.0616  -7.0131  -6.9967  -6.9850  -6.9757  -6.9699  -6.9608
    -6.9447  -6.9220  -6.9185  -6.9030  -6.8992  -6.8694  -6.8507  -6.8147
    -6.7423  -6.7200  -6.7183  -6.7093  -6.6501  -6.6444  -6.6441  -6.6423
    -6.6349  -6.6303  -6.6263  -6.6157  -6.5917  -6.5760  -6.5650  -6.5322
    -6.5192  -6.5161  -6.5114  -6.4976  -6.4681  -6.2545  -6.2352  -6.1686
    -6.1419  -6.1172  -6.1024  -6.0597  -6.0031  -5.8895  -5.8585  -5.8555
    -5.8510  -5.8173  -5.7951  -5.7804  -5.7420  -5.7016  -5.6994  -5.6898
    -5.6778  -5.6629  -5.6490  -5.6141  -5.6025  -5.5892  -5.5668  -5.5603
    -5.5562  -5.5163  -5.5067  -5.4719  -5.4701  -5.4676  -5.4375  -5.4263
[...]
    -5.0857  -5.0683  -5.0561  -5.0203  -5.0113  -4.9997  -4.9524  -4.9410
    -4.9153  -4.9134  -4.9122  -4.9065  -4.9053  -4.8999  -4.8962  -4.8916
    -4.8910  -4.8907  -4.8836  -4.8711  -4.8642  -4.8568  -4.8559  -4.8503
    -4.8468  -4.8404  -4.8332  -4.8286  -4.8119  -4.7842  -4.7814  -4.7795
    -4.7702  -4.7679  -4.7627  -4.7600  -4.7537  -4.7475  -4.7428  -4.7303
    -4.7202  -4.7162  -4.7120  -4.7068  -4.7032  -4.6803  -4.6797  -4.6794
    -4.6695  -4.6665  -4.6632  -4.6612  -4.6605  -4.6601  -4.6375  -4.6253
    -4.6213  -4.6103  -4.5636  -4.5419  -4.5409  -4.5374  -4.5262  -4.5057
    -4.5041  -4.4958  -4.4854  -4.4820  -4.4780  -4.4769  -4.4710  -4.4700
    -4.4700  -4.4662  -4.4592  -4.4592  -4.4588  -4.4569  -4.4445  -4.4397
    -4.4364  -4.4085  -4.4078  -4.4022  -4.3992  -4.3944  -4.3936  -4.3893
    -4.3794  -4.3764  -4.3687  -4.3636  -4.3605  -4.3086  -4.2854  -4.2852
    -4.2758  -4.2755  -4.2657  -4.2434  -4.1343  -4.0957  -4.0754  -4.0570
    -3.9428  -3.9317  -3.8695  -3.8544  -3.8491  -3.8446  -3.7956  -3.7937
    -3.7807  -3.7660  -3.7585

     the Fermi energy is    -6.6033 ev

!    total energy              =  -21094.91144955 Ry
     Harris-Foulkes estimate   =  -21094.91145046 Ry
     estimated scf accuracy    <          5.1E-11 Ry

     The total energy is the sum of the following terms:

     one-electron contribution = -744843.60266419 Ry
     hartree contribution      =  372167.15156747 Ry
     xc contribution           =   -2235.08652231 Ry
     ewald contribution        =  358691.45904482 Ry
     Dispersion Correction     =      -1.39545450 Ry
     one-center paw contrib.   =   -4873.43776143 Ry
     smearing contrib. (-TS)   =       0.00034059 Ry

     total magnetization       =   161.54 Bohr mag/cell
     absolute magnetization    =   168.06 Bohr mag/cell

     convergence has been achieved in  13 iterations

     negative rho (up, down):  2.439E-02 2.024E-02

     Forces acting on atoms (cartesian axes, Ry/au):

     atom    1 type  1   force =     0.00030397    0.00001423    0.00989055
     atom    2 type  1   force =    -0.00091979    0.00130900   -0.00532014
     atom    3 type  1   force =     0.00016910    0.00013561    0.00953134
     atom    4 type  1   force =    -0.00053920    0.00009352   -0.01060016
     atom    5 type  1   force =    -0.00001446   -0.00000428   -0.00002900
     atom    6 type  1   force =     0.00000273    0.00000286    0.00000270
     atom    7 type  1   force =     0.00001805    0.00000247   -0.00004403
     atom    8 type  1   force =     0.00001495    0.00001776   -0.00001299
     atom    9 type  1   force =     0.00000335    0.00002385    0.00973678
     atom   10 type  1   force =    -0.00018029   -0.00016569    0.00898289
     atom   11 type  1   force =     0.00011206   -0.00004471   -0.01047130
     atom   12 type  1   force =    -0.00021561   -0.00006809   -0.00965216
     atom   13 type  1   force =     0.00000011   -0.00000184   -0.00005673
     atom   14 type  1   force =     0.00001911    0.00001242   -0.00008400
     atom   15 type  1   force =     0.00013445    0.00000870    0.00001141
     atom   16 type  1   force =     0.00001660    0.00000924   -0.00001163
     atom   17 type  1   force =     0.00021765    0.00009079    0.00949197
     atom   18 type  1   force =    -0.00004559   -0.00051921   -0.01060854
     atom   19 type  1   force =    -0.00016190   -0.00017726    0.00948665
     atom   20 type  1   force =    -0.00001755    0.00003306   -0.00695631
     atom   21 type  1   force =     0.00000727    0.00001260   -0.00004191
     atom   22 type  1   force =     0.00002477    0.00000440   -0.00001906
     atom   23 type  1   force =    -0.00001748   -0.00000402   -0.00004177
     atom   24 type  1   force =    -0.00006149    0.00007846    0.00027074
     atom   25 type  1   force =     0.00003197   -0.00004461    0.00874340
     atom   26 type  1   force =     0.00002036   -0.00003666    0.00922147
     atom   27 type  1   force =     0.00006817   -0.00005266   -0.01106577
     atom   28 type  1   force =     0.00001297   -0.00010773   -0.01046703
     atom   29 type  1   force =    -0.00000089    0.00000038    0.00001037
     atom   30 type  1   force =     0.00000201   -0.00000474   -0.00005333
     atom   31 type  1   force =    -0.00010469   -0.00007351    0.00002798
     atom   32 type  1   force =    -0.00005113   -0.00012126    0.00000973
     atom   33 type  1   force =    -0.00031503    0.00000782    0.00994309
     atom   34 type  1   force =     0.00050613   -0.00012177   -0.01060626
     atom   35 type  1   force =     0.00009961    0.00030169    0.00995324
     atom   36 type  1   force =     0.00083212   -0.00118048   -0.00527705
     atom   37 type  1   force =     0.00001372    0.00000184   -0.00003221
     atom   38 type  1   force =    -0.00001401   -0.00002121   -0.00001764
     atom   39 type  1   force =    -0.00000760   -0.00001387   -0.00002824
     atom   40 type  1   force =    -0.00000021   -0.00000698    0.00000373
     atom   41 type  1   force =    -0.00002568    0.00003926    0.00720222
     atom   42 type  1   force =    -0.00004340    0.00006462    0.00919987
     atom   43 type  1   force =     0.00013210    0.00018858   -0.00964359
     atom   44 type  1   force =    -0.00013159    0.00004816   -0.01042688
     atom   45 type  1   force =     0.00000071   -0.00000076   -0.00005933
     atom   46 type  1   force =    -0.00000084    0.00000260   -0.00005455
     atom   47 type  1   force =    -0.00001112   -0.00001776   -0.00001143
     atom   48 type  1   force =    -0.00013945   -0.00001368    0.00000372
     atom   49 type  1   force =    -0.00018076   -0.00011911    0.00953980
     atom   50 type  1   force =     0.00008130   -0.00012035   -0.00693515
     atom   51 type  1   force =    -0.00011141   -0.00028636    0.00990024
     atom   52 type  1   force =     0.00008645    0.00055300   -0.01059604
     atom   53 type  1   force =    -0.00000729   -0.00001450   -0.00004544
     atom   54 type  1   force =     0.00006097   -0.00008117    0.00026716
     atom   55 type  1   force =     0.00000996    0.00001361   -0.00002694
     atom   56 type  1   force =    -0.00002231   -0.00000548   -0.00001256
     atom   57 type  1   force =    -0.00002405    0.00000441    0.00975072
     atom   58 type  1   force =     0.00021892    0.00011721    0.00897716
     atom   59 type  1   force =    -0.00000453    0.00013783   -0.01043406
     atom   60 type  1   force =     0.00002427   -0.00007064   -0.01107244
     atom   61 type  1   force =     0.00000231   -0.00000099   -0.00005639
     atom   62 type  1   force =    -0.00002026   -0.00001187   -0.00008444
     atom   63 type  1   force =     0.00005716    0.00012321    0.00000301
     atom   64 type  1   force =     0.00010242    0.00007567    0.00002903
     atom   65 type  2   force =     0.00000962    0.00000824    0.00007645
     atom   66 type  3   force =     0.00000335   -0.00001143    0.00006665
     atom   67 type  3   force =    -0.00003117   -0.00001243    0.00007911

     Total force =     0.000583     Total SCF correction =     0.000066
     SCF correction compared to forces is large: reduce conv_thr to get better values

     bfgs converged in   9 scf cycles and   8 bfgs steps
     (criteria: energy <  7.3E-07 Ry, force <  3.9E-04 Ry/Bohr)

     End of BFGS Geometry Optimization

     Final energy   =  -21094.9114495486 Ry
Begin final coordinates

ATOMIC_POSITIONS (angstrom)
Fe       1.654912953   1.170200133   0.000000000    0   0   0
Fe       0.000000000   0.000000000   2.026984232    0   0   0
Fe       4.964738858   3.510600399   0.000000000    0   0   0
Fe       3.309825906   2.340400266   2.026984232    0   0   0
Fe       1.647660576   1.168017577   4.023458561
Fe       3.303426682   9.370722275   5.997769904
Fe       4.960173133   3.515074479   4.011084220
Fe       3.305228849   2.331763736   5.997891455
Fe       2.482363858   3.510600399   0.000000000    0   0   0
Fe       4.137287953   1.170200133   0.000000000    0   0   0
Fe       0.827450906   2.340400266   2.026984232    0   0   0
Fe       2.482375000   0.000000000   2.026984232    0   0   0
Fe       2.482384844   3.510542046   4.026495006
Fe       4.129506926   1.164735310   4.017056548
Fe       0.813156630   2.344218707   5.988506062
Fe       2.477787313  -0.003197616   6.008275880
Fe       6.619662953   1.170200133   0.000000000    0   0   0
Fe       4.964750000   0.000000000   2.026984232    0   0   0
Fe       9.929488858   3.510600399   0.000000000    0   0   0
Fe       8.274575906   2.340400266   2.026984232    0   0   0
Fe       6.622475656   1.164326214   4.011105589
Fe       4.955238685  -0.001518749   5.997348527
Fe       9.934236518   3.506043844   4.011069092
Fe       8.277625742   2.336642207   6.086049931
Fe       7.447113858   3.510600399   0.000000000    0   0   0
Fe       9.102037953   1.170200133   0.000000000    0   0   0
Fe       5.792200906   2.340400266   2.026984232    0   0   0
Fe       7.447125000   0.000000000   2.026984232    0   0   0
Fe       7.447256191   3.510530627   4.043543163
Fe       9.091178150   1.185646723   4.046933609
Fe       5.746017548   2.307664090   5.927404583
Fe      10.758239720   9.376603964   5.988582532
Fe       3.309814764   5.851000664   0.000000000    0   0   0
Fe       1.654901811   4.680800531   2.026984232    0   0   0
Fe       6.619640670   8.191400930   0.000000000    0   0   0
Fe       4.964727717   7.021200797   2.026984232    0   0   0
Fe       3.316944256   5.853383004   4.023473402
Fe      11.589158407   4.689378005   5.997324149
Fe       6.615077233   8.185562135   4.023414061
Fe       4.971011447   7.012418239   5.997312535
Fe       4.137265670   8.191400930   0.000000000    0   0   0
Fe       5.792189764   5.851000664   0.000000000    0   0   0
Fe       2.482352717   7.021200797   2.026984232    0   0   0
Fe       4.137276811   4.680800531   2.026984232    0   0   0
Fe       4.137087732   8.191712391   4.029376200
Fe       5.802971139   5.835830132   4.046759375
Fe      12.416468204   7.024597519   6.008255743
Fe       4.151909764   4.677080758   5.988625829
Fe       8.274564764   5.851000664   0.000000000    0   0   0
Fe       6.619651811   4.680800531   2.026984232    0   0   0
Fe      11.584390670   8.191400930   0.000000000    0   0   0
Fe       9.929477717   7.021200797   2.026984232    0   0   0
Fe       8.271977631   5.856868196   4.011056790
Fe       6.617316530   4.684407268   6.085785741
Fe      11.588915631   8.197574838   4.023472891
Fe       9.939254118   7.022794231   5.997852566
Fe       9.102015670   8.191400930   0.000000000    0   0   0
Fe      10.756939764   5.851000664   0.000000000    0   0   0
Fe       7.447102717   7.021200797   2.026984232    0   0   0
Fe       9.102026811   4.680800531   2.026984232    0   0   0
Fe       9.102137010   8.191469414   4.026468904
Fe      10.764794729   5.856556826   4.017064672
Fe       7.445836527   7.006379878   5.988516278
Fe       9.148471744   4.713543291   5.927346480
N        7.448386458   3.511376676   7.475644742
H        8.108288668   3.978674855   8.113796918
H        6.788654900   3.044519822   8.114244593
End final coordinates

     Writing output data file Fe_NH2_paper_480c_ESM_pn25.save/

     General routines

     Parallel routines

   This run was terminated on:  16:20:42  13Jun2022

   JOB DONE.