     Program PWSCF v.6.4.1 starts on  8Jun2022 at 16:16: 3

     K-points division:     npool     =       8
     R & G space division:  proc/nbgrp/npool/nimage =      20
     Waiting for input...
     Reading input from standard input
Warning: card &CELL ignored
Warning: card / ignored

     Current dimensions of program PWSCF are:
     Max number of different atomic species (ntypx) = 10
     Max number of k-points (npk) =  40000
     Max angular momentum in pseudopotentials (lmaxx) =  3

     IMPORTANT: XC functional enforced from input :
     Exchange-correlation      = PBE ( 1  4  3  4 0 0)
     Any further DFT definition will be discarded
     Please, verify this is what you really want

               file Fe.pbe-spn-kjpaw_psl.0.2.1.UPF: wavefunction(s)  3D renormalized

     Parameters for Dispersion (Grimme-D2) Correction:
       atom      VdW radius       C_6

        Fe         2.952        374.666
        N          2.640         42.670
        H          1.892          4.857

     bravais-lattice index     =            0
     lattice parameter (alat)  =      18.7640  a.u.
     unit-cell volume          =   16360.3163 (a.u.)^3
     number of atoms/cell      =           67
     number of atomic types    =            3
     number of electrons       =      1031.00
     number of Kohn-Sham states=          619
     kinetic-energy cutoff     =      60.0000  Ry
     charge density cutoff     =     480.0000  Ry
     convergence threshold     =      1.0E-08
     mixing beta               =       0.2000
     number of iterations used =           10  local-TF  mixing
     Exchange-correlation      = PBE ( 1  4  3  4 0 0)
     nstep                     =           50

     Effective Screening Medium Method
     Boundary Conditions: Metal-Slab-Metal
     field strength                   =     0.01 Ry/a.u.
     grid points for fit at edges     =        4

     celldm(1)=  18.764036  celldm(2)=   0.000000  celldm(3)=   0.000000
     celldm(4)=   0.000000  celldm(5)=   0.000000  celldm(6)=   0.000000

     crystal axes: (cart. coord. in units of alat)
               a(1) = (   1.000000   0.000000   0.000000 )
               a(2) = (   0.333330   0.942807   0.000000 )
               a(3) = (   0.000000   0.000000   2.626577 )

     reciprocal axes: (cart. coord. in units 2 pi/alat)
               b(1) = (  1.000000 -0.353551  0.000000 )
               b(2) = (  0.000000  1.060663  0.000000 )
               b(3) = (  0.000000  0.000000  0.380724 )

     PseudoPot. # 1 for Fe read from file:
     ../../SSSP/Fe.pbe-spn-kjpaw_psl.0.2.1.UPF
     MD5 check sum: e86618425769142926afa95317d90200
     Pseudo is Projector augmented-wave + core cor, Zval = 16.0
     Generated using "atomic" code by A. Dal Corso v.5.0.99 svn rev. 10869
     Shape of augmentation charge: PSQ
     Using radial grid of 1191 points,  6 beta functions with:
                l(1) =   0
                l(2) =   0
                l(3) =   1
                l(4) =   1
                l(5) =   2
                l(6) =   2
     Q(r) pseudized with 0 coefficients

     PseudoPot. # 2 for N  read from file:
     ../../SSSP/N.pbe-n-radius_5.UPF
     MD5 check sum: 16739722b17309cd8fe442a2ace49922
     Pseudo is Ultrasoft + core correction, Zval =  5.0
     Generated using "atomic" code by A. Dal Corso v.5.1
     Using radial grid of 1085 points,  4 beta functions with:
                l(1) =   0
                l(2) =   0
                l(3) =   1
                l(4) =   1
     Q(r) pseudized with 0 coefficients

     PseudoPot. # 3 for H  read from file:
     ../../SSSP/H.pbe-rrkjus_psl.1.0.0.UPF
     MD5 check sum: f52b6d4d1c606e5624b1dc7b2218f220
     Pseudo is Ultrasoft, Zval =  1.0
     Generated using "atomic" code by A. Dal Corso v.5.1
     Using radial grid of  929 points,  2 beta functions with:
                l(1) =   0
                l(2) =   0
     Q(r) pseudized with 0 coefficients

     atomic species   valence    mass     pseudopotential
        Fe            16.00    55.84500     Fe( 1.00)
        N              5.00    14.00700     N ( 1.00)
        H              1.00     1.00800     H ( 1.00)

     Starting magnetic structure
     atomic species   magnetization
        Fe           0.100
        N            0.100
        H            0.100

     No symmetry found

   Cartesian axes

     site n.     atom                  positions (alat units)
         1           Fe  tau(   1) = (   0.1666663   0.1178509   0.0000000  )
         2           Fe  tau(   2) = (   0.0000000   0.0000000   0.2041376  )
         3           Fe  tau(   3) = (   0.4999989   0.3535526   0.0000000  )
         4           Fe  tau(   4) = (   0.3333326   0.2357017   0.2041376  )
         5           Fe  tau(   5) = (   0.1688526   0.1178123   0.4052638  )
         6           Fe  tau(   6) = (   0.3343666   0.9422529   0.6043949  )
         7           Fe  tau(   7) = (   0.5011705   0.3549870   0.4070642  )
         8           Fe  tau(   8) = (   0.3393831   0.2351315   0.6052202  )
         9           Fe  tau(   9) = (   0.2499989   0.3535526   0.0000000  )
        10           Fe  tau(  10) = (   0.4166663   0.1178509   0.0000000  )
        11           Fe  tau(  11) = (   0.0833326   0.2357017   0.2041376  )
        12           Fe  tau(  12) = (   0.2500000   0.0000000   0.2041376  )
        13           Fe  tau(  13) = (   0.2500559   0.3534950   0.4069210  )
        14           Fe  tau(  14) = (   0.4191000   0.1196350   0.4061592  )
        15           Fe  tau(  15) = (   0.0871435   0.2338643   0.6041281  )
        16           Fe  tau(  16) = (   0.2514579   0.0011120   0.6053465  )
        17           Fe  tau(  17) = (   0.6666663   0.1178509   0.0000000  )
        18           Fe  tau(  18) = (   0.5000000   0.0000000   0.2041376  )
        19           Fe  tau(  19) = (   0.9999989   0.3535526   0.0000000  )
        20           Fe  tau(  20) = (   0.8333326   0.2357017   0.2041376  )
        21           Fe  tau(  21) = (   0.6683563   0.1185166   0.4070365  )
        22           Fe  tau(  22) = (   0.5013944   0.0059648   0.6052472  )
        23           Fe  tau(  23) = (   0.9987787   0.3520559   0.4068378  )
        24           Fe  tau(  24) = (   0.8424589   0.2228022   0.6027904  )
        25           Fe  tau(  25) = (   0.7499989   0.3535526   0.0000000  )
        26           Fe  tau(  26) = (   0.9166663   0.1178509   0.0000000  )
        27           Fe  tau(  27) = (   0.5833326   0.2357017   0.2041376  )
        28           Fe  tau(  28) = (   0.7500000   0.0000000   0.2041376  )
        29           Fe  tau(  29) = (   0.7499601   0.3535290   0.4028893  )
        30           Fe  tau(  30) = (   0.9185178   0.1150390   0.4041441  )
        31           Fe  tau(  31) = (   0.5928424   0.2424388   0.6092791  )
        32           Fe  tau(  32) = (   1.0845617   0.9388154   0.6041901  )
        33           Fe  tau(  33) = (   0.3333315   0.5892543   0.0000000  )
        34           Fe  tau(  34) = (   0.1666652   0.4714034   0.2041376  )
        35           Fe  tau(  35) = (   0.6666640   0.8249560   0.0000000  )
        36           Fe  tau(  36) = (   0.4999978   0.7071052   0.2041376  )
        37           Fe  tau(  37) = (   0.3312301   0.5893346   0.4055736  )
        38           Fe  tau(  38) = (   1.1607807   0.4712720   0.6048225  )
        39           Fe  tau(  39) = (   0.6673353   0.8270823   0.4052856  )
        40           Fe  tau(  40) = (   0.4998026   0.7083523   0.6043520  )
        41           Fe  tau(  41) = (   0.4166640   0.8249560   0.0000000  )
        42           Fe  tau(  42) = (   0.5833315   0.5892543   0.0000000  )
        43           Fe  tau(  43) = (   1.2499978   0.7071052   0.2041376  )
        44           Fe  tau(  44) = (   0.4166652   0.4714034   0.2041376  )
        45           Fe  tau(  45) = (   0.4165428   0.8249182   0.4043922  )
        46           Fe  tau(  46) = (   0.5812921   0.5919617   0.4041411  )
        47           Fe  tau(  47) = (   1.2473904   0.7053047   0.6055422  )
        48           Fe  tau(  48) = (   0.4132843   0.4739990   0.6042619  )
        49           Fe  tau(  49) = (   0.8333315   0.5892543   0.0000000  )
        50           Fe  tau(  50) = (   0.6666652   0.4714034   0.2041376  )
        51           Fe  tau(  51) = (   1.1666640   0.8249560   0.0000000  )
        52           Fe  tau(  52) = (   0.9999978   0.7071052   0.2041376  )
        53           Fe  tau(  53) = (   0.8314839   0.5886441   0.4068646  )
        54           Fe  tau(  54) = (   0.6575280   0.4843558   0.6027900  )
        55           Fe  tau(  55) = (   1.1660113   0.8229814   0.4055641  )
        56           Fe  tau(  56) = (   0.9978793   0.7016247   0.6048225  )
        57           Fe  tau(  57) = (   0.9166640   0.8249560   0.0000000  )
        58           Fe  tau(  58) = (   1.0833315   0.5892543   0.0000000  )
        59           Fe  tau(  59) = (   0.7499978   0.7071052   0.2041376  )
        60           Fe  tau(  60) = (   0.9166652   0.4714034   0.2041376  )
        61           Fe  tau(  61) = (   0.9165956   0.8250802   0.4069362  )
        62           Fe  tau(  62) = (   1.0808343   0.5875346   0.4059196  )
        63           Fe  tau(  63) = (   0.7494961   0.7113818   0.6041901  )
        64           Fe  tau(  64) = (   0.9074158   0.4648707   0.6092031  )
        65           N   tau(  65) = (   0.7500994   0.3536582   0.7047786  )
        66           H   tau(  66) = (   0.7502549   0.3537961   0.8083370  )
        67           H   tau(  67) = (   0.4593157   0.8551593   0.6989822  )

     number of k points=    10  Methfessel-Paxton smearing, width (Ry)=  0.0100
                       cart. coord. in units 2pi/alat
        k(    1) = (   0.0000000   0.0000000   0.0000000), wk =   0.0625000
        k(    2) = (   0.0000000   0.2651656   0.0000000), wk =   0.1250000
        k(    3) = (   0.0000000  -0.5303313   0.0000000), wk =   0.0625000
        k(    4) = (   0.2500000  -0.0883878   0.0000000), wk =   0.1250000
        k(    5) = (   0.2500000   0.1767779   0.0000000), wk =   0.1250000
        k(    6) = (   0.2500000  -0.6187190   0.0000000), wk =   0.1250000
        k(    7) = (   0.2500000  -0.3535534   0.0000000), wk =   0.1250000
        k(    8) = (  -0.5000000   0.1767755   0.0000000), wk =   0.0625000
        k(    9) = (  -0.5000000   0.4419412   0.0000000), wk =   0.1250000
        k(   10) = (  -0.5000000  -0.3535558   0.0000000), wk =   0.0625000

     Check: negative core charge=   -0.000039

     Initial potential from superposition of free atoms

     starting charge 1030.97192, renormalised to 1031.00000

     negative rho (up, down):  2.445E-02 2.518E-03
     Starting wfcs are  838 randomized atomic wfcs
     Checking if some PAW data can be deallocated...

     Self-consistent Calculation

     iteration #  1     ecut=    60.00 Ry     beta= 0.20
     Davidson diagonalization with overlap
     c_bands:  1 eigenvalues not converged
     ethr =  1.00E-04,  avg # of iterations = 17.9

     negative rho (up, down):  1.254E-02 3.286E-03

     total energy              =  -21088.76402903 Ry
[...]
     atom:   60    charge:   12.5965    magn:    2.1960    constr:    0.0000
     atom:   61    charge:   12.5970    magn:    2.1932    constr:    0.0000
     atom:   62    charge:   12.6002    magn:    2.1416    constr:    0.0000
     atom:   63    charge:   12.6100    magn:    2.3275    constr:    0.0000
     atom:   64    charge:   12.6009    magn:    2.2417    constr:    0.0000
     atom:   65    charge:    1.3297    magn:   -0.0317    constr:    0.0000
     atom:   66    charge:    0.4404    magn:    0.0067    constr:    0.0000
     atom:   67    charge:    0.3550    magn:   -0.0202    constr:    0.0000

     End of self-consistent calculation

 ------ SPIN UP ------------

[...]

 ------ SPIN DOWN ----------

[...]

          k = 0.2500-0.3536 0.0000 (128397 PWs)   bands (ev):

[...]

          k =-0.5000-0.3536 0.0000 (128560 PWs)   bands (ev):

   -88.2209 -88.2193 -87.8775 -87.8765 -87.8302 -87.8268 -87.8068 -87.8009
   -87.7841 -87.7781 -87.7617 -87.7586 -87.7509 -87.7500 -87.7497 -87.7468
   -87.7395 -87.7373 -87.7346 -87.7312 -87.7285 -87.7278 -87.7270 -87.7243
   -87.7215 -87.7179 -87.7163 -87.7121 -87.7102 -87.7090 -87.7085 -87.7078
   -87.7074 -87.7051 -87.7050 -87.6889 -87.6876 -87.6852 -87.6852 -87.6787
   -87.6766 -87.6699 -87.6699 -87.6696 -87.6683 -87.6660 -87.6658 -87.6629
   -87.6590 -87.6518 -87.6482 -87.6478 -87.6478 -87.6475 -87.6463 -87.6462
   -87.6461 -87.6455 -87.6438 -87.6409 -87.6254 -87.6252 -87.6246 -87.6224
   -54.6537 -54.6388 -54.3124 -54.3075 -54.1643 -54.1479 -54.1084 -54.1077
   -54.0978 -54.0743 -54.0466 -54.0398 -54.0396 -54.0334 -54.0326 -54.0293
   -54.0281 -54.0267 -54.0209 -54.0191 -54.0156 -54.0148 -54.0139 -54.0107
   -54.0092 -54.0047 -54.0032 -53.9994 -53.9987 -53.9931 -53.9885 -53.9878
   -53.9855 -53.9835 -53.9827 -53.9788 -53.9741 -53.9707 -53.9690 -53.9677
   -53.9676 -53.9627 -53.9609 -53.9563 -53.9536 -53.9507 -53.9487 -53.9478
   -53.9415 -53.9351 -53.9340 -53.9285 -53.9274 -53.9260 -53.9247 -53.9217
   -53.9216 -53.9214 -53.9208 -53.9201 -53.9158 -53.9151 -53.9130 -53.9120
   -53.9109 -53.9099 -53.9027 -53.9012 -53.8967 -53.8928 -53.8897 -53.8876
   -53.8825 -53.8747 -53.8708 -53.8693 -53.8658 -53.8611 -53.8543 -53.8527
   -53.8516 -53.8507 -53.8429 -53.8417 -53.8382 -53.8318 -53.8307 -53.8307
   -53.8248 -53.8238 -53.8217 -53.8185 -53.8183 -53.8138 -53.8117 -53.8107
   -53.8103 -53.8077 -53.8044 -53.8032 -53.8018 -53.8003 -53.7926 -53.7921
   -53.7863 -53.7841 -53.7840 -53.7806 -53.7755 -53.7748 -53.7733 -53.7727
   -53.7708 -53.7704 -53.7682 -53.7662 -53.7651 -53.7635 -53.7619 -53.7579
   -53.7564 -53.7555 -53.7534 -53.7503 -53.7453 -53.7451 -53.7437 -53.7433
   -53.7383 -53.7372 -53.7368 -53.7328 -53.7314 -53.7304 -53.7285 -53.7236
   -53.7226 -53.7220 -53.7188 -53.7168 -53.7152 -53.7151 -53.7131 -53.7128
   -53.7121 -53.7107 -53.7083 -53.7074 -53.7061 -53.7057 -53.7047 -53.7040
   -53.7021 -53.6989 -53.6963 -53.6953 -53.6917 -53.6894 -53.6890 -53.6864
   -53.6859 -53.6841 -53.6834 -53.6833 -53.6820 -53.6808 -53.6807 -53.6803
   -53.6798 -53.6796 -53.6774 -53.6770 -53.6762 -53.6745 -53.6708 -53.6697
   -53.6679 -53.6664 -53.6657 -53.6653 -53.6646 -53.6593 -53.6588 -53.6583
   -53.6567 -53.6551 -53.6541 -53.6535 -53.6515 -53.6495 -53.6475 -53.6469
   -18.9439 -10.4581  -9.7428  -9.7094  -9.1967  -9.1660  -8.7753  -8.4747
    -8.0596  -7.9686  -7.6726  -7.5402  -7.5196  -7.1365  -7.0925  -7.0599
    -7.0268  -6.6713  -6.4681  -6.2974  -6.2871  -6.2763  -6.2553  -6.2456
    -6.2057  -6.1722  -6.1519  -6.1475  -6.1111  -6.1042  -5.8822  -5.7510
    -5.7278  -5.7204  -5.7175  -5.6790  -5.6213  -5.5257  -5.4317  -5.2695
    -5.2503  -5.2458  -5.2155  -5.2116  -5.1817  -5.1623  -5.1216  -5.1059
    -5.1025  -5.0458  -5.0061  -4.9760  -4.9694  -4.9469  -4.9249  -4.8932
    -4.8539  -4.7084  -4.7008  -4.6822  -4.6698  -4.6595  -4.6211  -4.4507
    -4.4175  -4.3955  -4.3811  -4.3653  -4.3530  -4.2708  -4.2473  -4.2316
    -4.2054  -4.1859  -4.1673  -4.1549  -4.1529  -4.1440  -4.1271  -4.1270
    -4.1091  -4.0952  -4.0906  -4.0524  -4.0482  -4.0389  -4.0352  -4.0261
    -4.0178  -4.0000  -3.9877  -3.9419  -3.9133  -3.8955  -3.8182  -3.8100
    -3.8016  -3.7425  -3.6969  -3.6868  -3.6777  -3.6762  -3.6687  -3.6589
    -3.6456  -3.6399  -3.6321  -3.6321  -3.6057  -3.6055  -3.5982  -3.5958
    -3.5900  -3.5776  -3.5710  -3.5599  -3.5581  -3.5547  -3.5431  -3.5371
    -3.5338  -3.5290  -3.5226  -3.5163  -3.5047  -3.5035  -3.4935  -3.4833
    -3.4710  -3.4508  -3.4507  -3.4431  -3.4405  -3.4296  -3.4228  -3.4132
    -3.4126  -3.4110  -3.3835  -3.3799  -3.3753  -3.3233  -3.3074  -3.2494
    -3.2109  -3.1806  -3.1661  -3.1516  -3.1509  -3.1497  -3.1305  -3.1299
    -3.1205  -3.1010  -3.0583  -3.0354  -2.9970  -2.9964  -2.9788  -2.9655
    -2.9560  -2.9492  -2.9454  -2.9210  -2.9069  -2.9046  -2.8674  -2.8628
    -2.7699  -2.7392  -2.7177  -2.6993  -2.6956  -2.6828  -2.6692  -2.6570
    -2.6521  -2.6376  -2.6360  -2.5891  -2.5586  -2.5580  -2.5526  -2.5372
    -2.5312  -2.5262  -2.5249  -2.4951  -2.4772  -2.3272  -2.2604  -2.2507
    -2.2340  -2.1352  -2.1336  -2.1084  -1.9600  -1.9180  -1.8778  -1.8618
    -1.8431  -1.8073  -1.7941  -1.7859  -1.7736  -1.7460  -1.7418  -1.7114
    -1.6986  -1.6928  -1.6779  -1.6397  -1.6179  -1.5935  -1.5800  -1.5669
    -1.5628  -1.5507  -1.5441  -1.4996  -1.4905  -1.4830  -1.4549  -1.4050
[...]
    -1.0597  -1.0562  -1.0193  -1.0112  -0.9783  -0.9653  -0.9547  -0.9413
    -0.9395  -0.9390  -0.9345  -0.9216  -0.9086  -0.9048  -0.8887  -0.8818
    -0.8784  -0.8733  -0.8697  -0.8596  -0.8571  -0.8523  -0.8429  -0.8257
    -0.8193  -0.8156  -0.8115  -0.7933  -0.7830  -0.7766  -0.7710  -0.7663
    -0.7633  -0.7612  -0.7540  -0.7530  -0.7499  -0.7324  -0.7236  -0.7209
    -0.7106  -0.6982  -0.6950  -0.6902  -0.6863  -0.6806  -0.6729  -0.6722
    -0.6652  -0.6473  -0.6379  -0.6323  -0.5991  -0.5801  -0.5743  -0.5661
    -0.5575  -0.5476  -0.5474  -0.5365  -0.5335  -0.5322  -0.5117  -0.5028
    -0.5002  -0.4934  -0.4927  -0.4857  -0.4790  -0.4764  -0.4720  -0.4676
    -0.4620  -0.4585  -0.4549  -0.4408  -0.4347  -0.4253  -0.4223  -0.4178
    -0.4128  -0.4085  -0.3965  -0.3958  -0.3923  -0.3856  -0.3761  -0.3609
    -0.3333  -0.3142  -0.3119  -0.2928  -0.2914  -0.2689  -0.2112  -0.1979
    -0.0962  -0.0960  -0.0800  -0.0764   0.0600   0.1258   0.1391   0.1473
     0.1553   0.1851   0.2059   0.2065   0.2224   0.2367   0.2453   0.3504
     0.4080   0.4411   0.4737

     the Fermi energy is    -2.6110 ev

!    total energy              =  -21094.97684848 Ry
     Harris-Foulkes estimate   =  -21094.97684787 Ry
     estimated scf accuracy    <          7.8E-11 Ry

     The total energy is the sum of the following terms:

     one-electron contribution = -744519.58462620 Ry
     hartree contribution      =  372156.17048601 Ry
     xc contribution           =   -2234.99910973 Ry
     ewald contribution        =  358378.28027881 Ry
     Dispersion Correction     =      -1.39916029 Ry
     one-center paw contrib.   =   -4873.44663284 Ry
     smearing contrib. (-TS)   =       0.00191577 Ry

     total magnetization       =   160.63 Bohr mag/cell
     absolute magnetization    =   167.42 Bohr mag/cell

     convergence has been achieved in  13 iterations

     negative rho (up, down):  2.493E-02 1.871E-02

     Forces acting on atoms (cartesian axes, Ry/au):

     atom    1 type  1   force =     0.00059024   -0.00018742    0.00901775
     atom    2 type  1   force =     0.00147622   -0.00221292   -0.01344570
     atom    3 type  1   force =    -0.00060391   -0.00034604    0.00911738
     atom    4 type  1   force =     0.00077946    0.00085553   -0.00836335
     atom    5 type  1   force =    -0.00001002   -0.00001362   -0.00001681
     atom    6 type  1   force =     0.00000633   -0.00003878    0.00001631
     atom    7 type  1   force =     0.00003719    0.00001679   -0.00006491
     atom    8 type  1   force =    -0.00000190    0.00000967    0.00003194
     atom    9 type  1   force =     0.00000988   -0.00000008    0.00972692
     atom   10 type  1   force =    -0.00020377   -0.00014628    0.00909318
     atom   11 type  1   force =    -0.00022329    0.00133099   -0.00735421
     atom   12 type  1   force =     0.00075783    0.00060632   -0.01166113
     atom   13 type  1   force =    -0.00000527   -0.00000501   -0.00000621
     atom   14 type  1   force =     0.00000763    0.00000012   -0.00008927
     atom   15 type  1   force =    -0.00000568   -0.00002447    0.00005407
     atom   16 type  1   force =     0.00000229   -0.00000172   -0.00004883
     atom   17 type  1   force =    -0.00052097   -0.00042757    0.00906747
     atom   18 type  1   force =     0.00107971    0.00051854   -0.00836485
     atom   19 type  1   force =     0.00054742    0.00037749    0.00917942
     atom   20 type  1   force =     0.00053551   -0.00097364   -0.01103095
     atom   21 type  1   force =     0.00002792    0.00002442   -0.00006796
     atom   22 type  1   force =     0.00000704   -0.00001770    0.00003633
     atom   23 type  1   force =    -0.00003371   -0.00002167   -0.00005336
     atom   24 type  1   force =    -0.00000304    0.00002827    0.00007558
     atom   25 type  1   force =    -0.00000512   -0.00001648    0.00715494
     atom   26 type  1   force =    -0.00067746    0.00082420    0.01001565
     atom   27 type  1   force =    -0.00009503   -0.00011177   -0.00636881
     atom   28 type  1   force =    -0.00102985    0.00074473   -0.00689797
     atom   29 type  1   force =     0.00000911   -0.00000311   -0.00012752
     atom   30 type  1   force =     0.00002076   -0.00003402   -0.00007547
     atom   31 type  1   force =     0.00001232   -0.00000399    0.00002197
     atom   32 type  1   force =     0.00003463    0.00000877    0.00004247
     atom   33 type  1   force =    -0.00043493    0.00016625    0.00891257
     atom   34 type  1   force =    -0.00065722   -0.00076103   -0.00848922
     atom   35 type  1   force =     0.00005071    0.00061478    0.00906131
     atom   36 type  1   force =    -0.00168638    0.00225021   -0.01341362
     atom   37 type  1   force =     0.00000983    0.00002630   -0.00000697
     atom   38 type  1   force =    -0.00001183   -0.00002957    0.00001738
     atom   39 type  1   force =    -0.00001427   -0.00001201   -0.00001338
     atom   40 type  1   force =    -0.00001846   -0.00000048    0.00002324
     atom   41 type  1   force =     0.00013106    0.00005679    0.00824881
     atom   42 type  1   force =     0.00056036   -0.00088808    0.01010587
     atom   43 type  1   force =    -0.00116405   -0.00073116   -0.01139683
     atom   44 type  1   force =     0.00033145   -0.00120215   -0.00687984
     atom   45 type  1   force =     0.00000999   -0.00000434    0.00004711
     atom   46 type  1   force =    -0.00002322    0.00003123   -0.00006373
     atom   47 type  1   force =     0.00006299    0.00003575    0.00004353
     atom   48 type  1   force =     0.00003533    0.00002585    0.00004520
     atom   49 type  1   force =     0.00055695    0.00038920    0.00925860
     atom   50 type  1   force =    -0.00068245    0.00072566   -0.01105075
     atom   51 type  1   force =     0.00004911   -0.00047728    0.00889346
     atom   52 type  1   force =    -0.00093182   -0.00029713   -0.00846285
     atom   53 type  1   force =    -0.00003231   -0.00002531   -0.00005696
     atom   54 type  1   force =     0.00003661   -0.00003358    0.00006927
     atom   55 type  1   force =     0.00003106   -0.00000946   -0.00001275
     atom   56 type  1   force =    -0.00003133   -0.00001442    0.00001789
     atom   57 type  1   force =    -0.00003727   -0.00001277    0.00972739
     atom   58 type  1   force =    -0.00002596   -0.00000947    0.00929833
     atom   59 type  1   force =     0.00116286   -0.00063294   -0.00732400
     atom   60 type  1   force =     0.00022675    0.00011909   -0.00634744
     atom   61 type  1   force =    -0.00001340   -0.00000533   -0.00000644
     atom   62 type  1   force =    -0.00001171   -0.00001330   -0.00009533
     atom   63 type  1   force =    -0.00003211   -0.00001613    0.00006121
     atom   64 type  1   force =    -0.00000526   -0.00000739   -0.00000942
     atom   65 type  2   force =    -0.00000664   -0.00001479   -0.00000941
     atom   66 type  3   force =     0.00001041   -0.00000511    0.00008037
     atom   67 type  3   force =     0.00003274    0.00000261    0.00007066

     Total force =     0.000367     Total SCF correction =     0.000040
     SCF correction compared to forces is large: reduce conv_thr to get better values

     bfgs converged in  12 scf cycles and  11 bfgs steps
     (criteria: energy <  7.3E-07 Ry, force <  3.9E-04 Ry/Bohr)

     End of BFGS Geometry Optimization

     Final energy   =  -21094.9768484832 Ry
Begin final coordinates

ATOMIC_POSITIONS (angstrom)
Fe       1.654912953   1.170200133   0.000000000    0   0   0
Fe       0.000000000   0.000000000   2.026984232    0   0   0
Fe       4.964738858   3.510600399   0.000000000    0   0   0
Fe       3.309825906   2.340400266   2.026984232    0   0   0
Fe       1.677178195   1.169323597   4.025455839
Fe       3.320985989   9.355099927   6.004090873
Fe       4.975930306   3.524657536   4.042783351
Fe       3.370853706   2.334919059   6.013358922
Fe       2.482363858   3.510600399   0.000000000    0   0   0
Fe       4.137287953   1.170200133   0.000000000    0   0   0
Fe       0.827450906   2.340400266   2.026984232    0   0   0
Fe       2.482375000   0.000000000   2.026984232    0   0   0
Fe       2.482867131   3.509723317   4.041939078
Fe       4.161525804   1.187520141   4.033973954
Fe       0.867348670   2.322186584   6.000798416
Fe       2.498732370   0.011788906   6.014460212
Fe       6.619662953   1.170200133   0.000000000    0   0   0
Fe       4.964750000   0.000000000   2.026984232    0   0   0
Fe       9.929488858   3.510600399   0.000000000    0   0   0
Fe       8.274575906   2.340400266   2.026984232    0   0   0
Fe       6.636551701   1.176142715   4.042619168
Fe       4.979916326   0.059335179   6.013583640
Fe       9.917529689   3.495499711   4.040728749
Fe       8.366205242   2.209991657   5.986967158
Fe       7.447113858   3.510600399   0.000000000    0   0   0
Fe       9.102037953   1.170200133   0.000000000    0   0   0
Fe       5.792200906   2.340400266   2.026984232    0   0   0
Fe       7.447125000   0.000000000   2.026984232    0   0   0
Fe       7.446571893   3.510060771   4.001227302
Fe       9.120733925   1.141800250   4.014305276
Fe       5.885546067   2.406146277   6.051191281
Fe      10.769096998   9.319413764   6.002185962
Fe       3.309814764   5.851000664   0.000000000    0   0   0
Fe       1.654901811   4.680800531   2.026984232    0   0   0
Fe       6.619640670   8.191400930   0.000000000    0   0   0
Fe       4.964727717   7.021200797   2.026984232    0   0   0
Fe       3.288629268   5.851608264   4.027875444
Fe      11.525155115   4.678508417   6.009789813
Fe       6.626305954   8.212744974   4.025516978
Fe       4.962289076   7.034266094   6.003765727
Fe       4.137265670   8.191400930   0.000000000    0   0   0
Fe       5.792189764   5.851000664   0.000000000    0   0   0
Fe      12.411852717   7.021200797   2.026984232    0   0   0
Fe       4.137276811   4.680800531   2.026984232    0   0   0
Fe       4.136137939   8.190825428   4.017272870
Fe       5.771689071   5.878044230   4.014347599
Fe      12.384548532   7.001978283   6.014416715
Fe       4.101488436   4.706624388   6.002513347
Fe       8.274564764   5.851000664   0.000000000    0   0   0
Fe       6.619651811   4.680800531   2.026984232    0   0   0
Fe      11.584390670   8.191400930   0.000000000    0   0   0
Fe       9.929477717   7.021200797   2.026984232    0   0   0
Fe       8.256355189   5.844825996   4.040837583
Fe       6.527338339   4.810676317   5.986939540
Fe      11.577914330   8.171246203   4.027824857
Fe       9.907731833   6.965957043   6.009577593
Fe       9.102015670   8.191400930   0.000000000    0   0   0
Fe      10.756939764   5.851000664   0.000000000    0   0   0
Fe       7.447102717   7.021200797   2.026984232    0   0   0
Fe       9.102026811   4.680800531   2.026984232    0   0   0
Fe       9.101450095   8.192429534   4.041939962
Fe      10.732138496   5.833570715   4.031775429
Fe       7.443252322   7.065079405   6.000962147
Fe       9.010764629   4.615975385   6.050865436
N        7.448588927   3.511679703   6.998997604
H        7.449966734   3.512883056   8.026345183
H        4.563047412   8.492806812   6.945754127
End final coordinates

     Writing output data file Fe_NH_H_paper_480c_ESM_p25.save/

     General routines

     Parallel routines

   This run was terminated on:  15:18:26   9Jun2022

   JOB DONE.