     Program PWSCF v.6.4.1 starts on  8Jun2022 at 15:55: 8

     K-points division:     npool     =       8
     R & G space division:  proc/nbgrp/npool/nimage =      20
     Waiting for input...
     Reading input from standard input
Warning: card &CELL ignored
Warning: card / ignored

     Current dimensions of program PWSCF are:
     Max number of different atomic species (ntypx) = 10
     Max number of k-points (npk) =  40000
     Max angular momentum in pseudopotentials (lmaxx) =  3

     IMPORTANT: XC functional enforced from input :
     Exchange-correlation      = PBE ( 1  4  3  4 0 0)
     Any further DFT definition will be discarded
     Please, verify this is what you really want

               file Fe.pbe-spn-kjpaw_psl.0.2.1.UPF: wavefunction(s)  3D renormalized

     Parameters for Dispersion (Grimme-D2) Correction:
       atom      VdW radius       C_6

        Fe         2.952        374.666
        N          2.640         42.670
        H          1.892          4.857

     bravais-lattice index     =            0
     lattice parameter (alat)  =      18.7640  a.u.
     unit-cell volume          =   16360.3163 (a.u.)^3
     number of atoms/cell      =           66
     number of atomic types    =            3
     number of electrons       =      1030.00
     number of Kohn-Sham states=          618
     kinetic-energy cutoff     =      60.0000  Ry
     charge density cutoff     =     480.0000  Ry
     convergence threshold     =      1.0E-08
     mixing beta               =       0.2000
     number of iterations used =           10  local-TF  mixing
     Exchange-correlation      = PBE ( 1  4  3  4 0 0)
     nstep                     =           50

     Effective Screening Medium Method
     Boundary Conditions: Metal-Slab-Metal
     field strength                   =     0.01 Ry/a.u.
     grid points for fit at edges     =        4

     celldm(1)=  18.764036  celldm(2)=   0.000000  celldm(3)=   0.000000
     celldm(4)=   0.000000  celldm(5)=   0.000000  celldm(6)=   0.000000

     crystal axes: (cart. coord. in units of alat)
               a(1) = (   1.000000   0.000000   0.000000 )
               a(2) = (   0.333330   0.942807   0.000000 )
               a(3) = (   0.000000   0.000000   2.626577 )

     reciprocal axes: (cart. coord. in units 2 pi/alat)
               b(1) = (  1.000000 -0.353551  0.000000 )
               b(2) = (  0.000000  1.060663  0.000000 )
               b(3) = (  0.000000  0.000000  0.380724 )

     PseudoPot. # 1 for Fe read from file:
     ../../SSSP/Fe.pbe-spn-kjpaw_psl.0.2.1.UPF
     MD5 check sum: e86618425769142926afa95317d90200
     Pseudo is Projector augmented-wave + core cor, Zval = 16.0
     Generated using "atomic" code by A. Dal Corso v.5.0.99 svn rev. 10869
     Shape of augmentation charge: PSQ
     Using radial grid of 1191 points,  6 beta functions with:
                l(1) =   0
                l(2) =   0
                l(3) =   1
                l(4) =   1
                l(5) =   2
                l(6) =   2
     Q(r) pseudized with 0 coefficients

     PseudoPot. # 2 for N  read from file:
     ../../SSSP/N.pbe-n-radius_5.UPF
     MD5 check sum: 16739722b17309cd8fe442a2ace49922
     Pseudo is Ultrasoft + core correction, Zval =  5.0
     Generated using "atomic" code by A. Dal Corso v.5.1
     Using radial grid of 1085 points,  4 beta functions with:
                l(1) =   0
                l(2) =   0
                l(3) =   1
                l(4) =   1
     Q(r) pseudized with 0 coefficients

     PseudoPot. # 3 for H  read from file:
     ../../SSSP/H.pbe-rrkjus_psl.1.0.0.UPF
     MD5 check sum: f52b6d4d1c606e5624b1dc7b2218f220
     Pseudo is Ultrasoft, Zval =  1.0
     Generated using "atomic" code by A. Dal Corso v.5.1
     Using radial grid of  929 points,  2 beta functions with:
                l(1) =   0
                l(2) =   0
     Q(r) pseudized with 0 coefficients

     atomic species   valence    mass     pseudopotential
        Fe            16.00    55.84500     Fe( 1.00)
        N              5.00    14.00700     N ( 1.00)
        H              1.00     1.00800     H ( 1.00)

     Starting magnetic structure
     atomic species   magnetization
        Fe           0.100
        N            0.100
        H            0.100

     No symmetry found

   Cartesian axes

     site n.     atom                  positions (alat units)
         1           Fe  tau(   1) = (   0.1666663   0.1178509   0.0000000  )
         2           Fe  tau(   2) = (   0.0000000   0.0000000   0.2041376  )
         3           Fe  tau(   3) = (   0.4999989   0.3535526   0.0000000  )
         4           Fe  tau(   4) = (   0.3333326   0.2357017   0.2041376  )
         5           Fe  tau(   5) = (   0.1686570   0.1178361   0.4052985  )
         6           Fe  tau(   6) = (   0.3341358   0.9417664   0.6035990  )
         7           Fe  tau(   7) = (   0.5010430   0.3547508   0.4069156  )
         8           Fe  tau(   8) = (   0.3388211   0.2353710   0.6054253  )
         9           Fe  tau(   9) = (   0.2499989   0.3535526   0.0000000  )
        10           Fe  tau(  10) = (   0.4166663   0.1178509   0.0000000  )
        11           Fe  tau(  11) = (   0.0833326   0.2357017   0.2041376  )
        12           Fe  tau(  12) = (   0.2500000   0.0000000   0.2041376  )
        13           Fe  tau(  13) = (   0.2500012   0.3535905   0.4067842  )
        14           Fe  tau(  14) = (   0.4190288   0.1195738   0.4060351  )
        15           Fe  tau(  15) = (   0.0865029   0.2339483   0.6039407  )
        16           Fe  tau(  16) = (   0.2513002   0.0009626   0.6053753  )
        17           Fe  tau(  17) = (   0.6666663   0.1178509   0.0000000  )
        18           Fe  tau(  18) = (   0.5000000   0.0000000   0.2041376  )
        19           Fe  tau(  19) = (   0.9999989   0.3535526   0.0000000  )
        20           Fe  tau(  20) = (   0.8333326   0.2357017   0.2041376  )
        21           Fe  tau(  21) = (   0.6681070   0.1185056   0.4068920  )
        22           Fe  tau(  22) = (   0.5014987   0.0053781   0.6054539  )
        23           Fe  tau(  23) = (   0.9989796   0.3524590   0.4068887  )
        24           Fe  tau(  24) = (   0.8420520   0.2235134   0.6021218  )
        25           Fe  tau(  25) = (   0.7499989   0.3535526   0.0000000  )
        26           Fe  tau(  26) = (   0.9166663   0.1178509   0.0000000  )
        27           Fe  tau(  27) = (   0.5833326   0.2357017   0.2041376  )
        28           Fe  tau(  28) = (   0.7500000   0.0000000   0.2041376  )
        29           Fe  tau(  29) = (   0.7500236   0.3535939   0.4028008  )
        30           Fe  tau(  30) = (   0.9183951   0.1154738   0.4034655  )
        31           Fe  tau(  31) = (   0.5922890   0.2421038   0.6094174  )
        32           Fe  tau(  32) = (   1.0840350   0.9393380   0.6039418  )
        33           Fe  tau(  33) = (   0.3333315   0.5892543   0.0000000  )
        34           Fe  tau(  34) = (   0.1666652   0.4714034   0.2041376  )
        35           Fe  tau(  35) = (   0.6666640   0.8249560   0.0000000  )
        36           Fe  tau(  36) = (   0.4999978   0.7071052   0.2041376  )
        37           Fe  tau(  37) = (   0.3313717   0.5893360   0.4053031  )
        38           Fe  tau(  38) = (   1.1612429   0.4718510   0.6054455  )
        39           Fe  tau(  39) = (   0.6672999   0.8268818   0.4053013  )
        40           Fe  tau(  40) = (   0.4992366   0.7082722   0.6034780  )
        41           Fe  tau(  41) = (   0.4166640   0.8249560   0.0000000  )
        42           Fe  tau(  42) = (   0.5833315   0.5892543   0.0000000  )
        43           Fe  tau(  43) = (   1.2499978   0.7071052   0.2041376  )
        44           Fe  tau(  44) = (   0.4166652   0.4714034   0.2041376  )
        45           Fe  tau(  45) = (   0.4166665   0.8250173   0.4049699  )
        46           Fe  tau(  46) = (   0.5816472   0.5917018   0.4034350  )
        47           Fe  tau(  47) = (   1.2487477   0.7062702   0.6053654  )
        48           Fe  tau(  48) = (   0.4135322   0.4732989   0.6040109  )
        49           Fe  tau(  49) = (   0.8333315   0.5892543   0.0000000  )
        50           Fe  tau(  50) = (   0.6666652   0.4714034   0.2041376  )
        51           Fe  tau(  51) = (   1.1666640   0.8249560   0.0000000  )
        52           Fe  tau(  52) = (   0.9999978   0.7071052   0.2041376  )
        53           Fe  tau(  53) = (   0.8319285   0.5887257   0.4069179  )
        54           Fe  tau(  54) = (   0.6579955   0.4838139   0.6021141  )
        55           Fe  tau(  55) = (   1.1660742   0.8231260   0.4052964  )
        56           Fe  tau(  56) = (   0.9985899   0.7019248   0.6054131  )
        57           Fe  tau(  57) = (   0.9166640   0.8249560   0.0000000  )
        58           Fe  tau(  58) = (   1.0833315   0.5892543   0.0000000  )
        59           Fe  tau(  59) = (   0.7499978   0.7071052   0.2041376  )
        60           Fe  tau(  60) = (   0.9166652   0.4714034   0.2041376  )
        61           Fe  tau(  61) = (   0.9166921   0.8250249   0.4067847  )
        62           Fe  tau(  62) = (   1.0809967   0.5876498   0.4060352  )
        63           Fe  tau(  63) = (   0.7493592   0.7108084   0.6040097  )
        64           Fe  tau(  64) = (   0.9078334   0.4652128   0.6093978  )
        65           N   tau(  65) = (   0.7501811   0.3537892   0.7047560  )
        66           H   tau(  66) = (   0.7501937   0.3538470   0.8083119  )

     number of k points=    10  Methfessel-Paxton smearing, width (Ry)=  0.0100
                       cart. coord. in units 2pi/alat
        k(    1) = (   0.0000000   0.0000000   0.0000000), wk =   0.0625000
        k(    2) = (   0.0000000   0.2651656   0.0000000), wk =   0.1250000
        k(    3) = (   0.0000000  -0.5303313   0.0000000), wk =   0.0625000
        k(    4) = (   0.2500000  -0.0883878   0.0000000), wk =   0.1250000
        k(    5) = (   0.2500000   0.1767779   0.0000000), wk =   0.1250000
        k(    6) = (   0.2500000  -0.6187190   0.0000000), wk =   0.1250000
        k(    7) = (   0.2500000  -0.3535534   0.0000000), wk =   0.1250000
        k(    8) = (  -0.5000000   0.1767755   0.0000000), wk =   0.0625000
        k(    9) = (  -0.5000000   0.4419412   0.0000000), wk =   0.1250000
        k(   10) = (  -0.5000000  -0.3535558   0.0000000), wk =   0.0625000

     Check: negative core charge=   -0.000039

     Initial potential from superposition of free atoms

     starting charge 1029.97193, renormalised to 1030.00000

     negative rho (up, down):  2.450E-02 2.523E-03
     Starting wfcs are  837 randomized atomic wfcs
     Checking if some PAW data can be deallocated...

     Self-consistent Calculation

     iteration #  1     ecut=    60.00 Ry     beta= 0.20
     Davidson diagonalization with overlap
     ethr =  1.00E-04,  avg # of iterations = 18.0

     negative rho (up, down):  1.250E-02 3.326E-03

     total energy              =  -21087.60979753 Ry
     Harris-Foulkes estimate   =  -21095.98868018 Ry
     estimated scf accuracy    <     424.21324248 Ry

[...]
     atom:   56    charge:   12.9300    magn:    2.4331    constr:    0.0000
     atom:   57    charge:   12.9339    magn:    2.4297    constr:    0.0000
     atom:   58    charge:   12.9332    magn:    2.4373    constr:    0.0000
     atom:   59    charge:   12.9257    magn:    2.2657    constr:    0.0000
     atom:   60    charge:   12.9250    magn:    2.2660    constr:    0.0000
     atom:   61    charge:   12.9266    magn:    2.2564    constr:    0.0000
     atom:   62    charge:   12.9309    magn:    2.2079    constr:    0.0000
     atom:   63    charge:   12.9357    magn:    2.3904    constr:    0.0000
     atom:   64    charge:   12.9245    magn:    2.3121    constr:    0.0000
     atom:   65    charge:    1.3296    magn:   -0.0310    constr:    0.0000
     atom:   66    charge:    0.4410    magn:    0.0070    constr:    0.0000

     End of self-consistent calculation

 ------ SPIN UP ------------

[...]

 ------ SPIN DOWN ----------

[...]

          k = 0.2500-0.3536 0.0000 (128397 PWs)   bands (ev):

[...]

          k =-0.5000-0.3536 0.0000 (128560 PWs)   bands (ev):

   -88.2287 -88.2270 -87.8792 -87.8774 -87.8133 -87.8115 -87.7825 -87.7772
   -87.7638 -87.7602 -87.7538 -87.7522 -87.7478 -87.7441 -87.7397 -87.7387
   -87.7350 -87.7346 -87.7341 -87.7325 -87.7308 -87.7256 -87.7218 -87.7213
   -87.7175 -87.7138 -87.7134 -87.7129 -87.7121 -87.7121 -87.7113 -87.7107
   -87.6944 -87.6909 -87.6907 -87.6900 -87.6842 -87.6831 -87.6810 -87.6730
   -87.6726 -87.6725 -87.6724 -87.6707 -87.6690 -87.6637 -87.6631 -87.6580
   -87.6579 -87.6522 -87.6509 -87.6508 -87.6504 -87.6496 -87.6490 -87.6488
   -87.6478 -87.6471 -87.6415 -87.6362 -87.6284 -87.6282 -87.6278 -87.6274
   -54.6631 -54.6477 -54.3196 -54.3146 -54.1691 -54.1529 -54.1095 -54.1065
   -54.0416 -54.0399 -54.0379 -54.0376 -54.0320 -54.0312 -54.0303 -54.0229
   -54.0224 -54.0195 -54.0187 -54.0148 -54.0137 -54.0134 -54.0107 -54.0106
   -54.0095 -54.0037 -53.9998 -53.9998 -53.9962 -53.9898 -53.9872 -53.9868
   -53.9858 -53.9770 -53.9722 -53.9714 -53.9709 -53.9707 -53.9656 -53.9632
   -53.9592 -53.9511 -53.9503 -53.9485 -53.9409 -53.9408 -53.9367 -53.9354
   -53.9347 -53.9340 -53.9303 -53.9294 -53.9273 -53.9257 -53.9251 -53.9242
   -53.9214 -53.9203 -53.9193 -53.9181 -53.9159 -53.9159 -53.9154 -53.9109
   -53.9048 -53.9019 -53.9016 -53.8986 -53.8907 -53.8887 -53.8884 -53.8838
   -53.8752 -53.8710 -53.8683 -53.8608 -53.8545 -53.8518 -53.8514 -53.8507
   -53.8485 -53.8412 -53.8412 -53.8375 -53.8324 -53.8278 -53.8250 -53.8217
   -53.8217 -53.8200 -53.8182 -53.8165 -53.8122 -53.8108 -53.8098 -53.8078
   -53.8076 -53.8055 -53.8049 -53.8022 -53.7906 -53.7889 -53.7855 -53.7836
   -53.7820 -53.7791 -53.7767 -53.7763 -53.7758 -53.7744 -53.7730 -53.7718
   -53.7707 -53.7706 -53.7650 -53.7646 -53.7641 -53.7624 -53.7617 -53.7580
   -53.7568 -53.7477 -53.7472 -53.7453 -53.7451 -53.7398 -53.7391 -53.7389
   -53.7352 -53.7346 -53.7337 -53.7332 -53.7263 -53.7232 -53.7208 -53.7201
   -53.7178 -53.7165 -53.7153 -53.7147 -53.7144 -53.7143 -53.7107 -53.7093
   -53.7087 -53.7079 -53.7051 -53.7049 -53.7033 -53.7031 -53.7027 -53.6996
   -53.6965 -53.6953 -53.6934 -53.6921 -53.6910 -53.6901 -53.6886 -53.6872
   -53.6869 -53.6856 -53.6847 -53.6831 -53.6830 -53.6829 -53.6828 -53.6817
   -53.6813 -53.6802 -53.6794 -53.6786 -53.6752 -53.6745 -53.6737 -53.6713
   -53.6708 -53.6682 -53.6681 -53.6680 -53.6676 -53.6611 -53.6603 -53.6595
   -53.6586 -53.6570 -53.6563 -53.6541 -53.6539 -53.6528 -53.6492 -53.6490
   -18.9488 -10.4641  -9.7274  -9.6428  -9.1698  -9.0892  -8.4812  -8.3201
    -8.0606  -7.7779  -7.6731  -7.5218  -7.1405  -7.1231  -7.0768  -7.0292
    -6.6726  -6.6462  -6.3085  -6.3005  -6.2880  -6.2702  -6.2474  -6.2117
    -6.1901  -6.1726  -6.1559  -6.1154  -6.1037  -6.0527  -5.7520  -5.7300
    -5.7223  -5.7196  -5.6862  -5.6774  -5.5282  -5.4870  -5.2701  -5.2527
    -5.2462  -5.2220  -5.2108  -5.1920  -5.1835  -5.1613  -5.1231  -5.1080
    -5.0940  -5.0110  -4.9787  -4.9721  -4.9560  -4.9502  -4.9266  -4.8588
    -4.7106  -4.7035  -4.6839  -4.6681  -4.6564  -4.6512  -4.4489  -4.4277
    -4.4158  -4.3885  -4.3821  -4.3585  -4.2707  -4.2460  -4.2276  -4.2022
    -4.1968  -4.1661  -4.1569  -4.1534  -4.1510  -4.1437  -4.1287  -4.1239
    -4.0964  -4.0881  -4.0526  -4.0451  -4.0374  -4.0346  -4.0273  -4.0234
    -4.0202  -4.0040  -3.9824  -3.9107  -3.8975  -3.8186  -3.8130  -3.8045
    -3.7406  -3.6982  -3.6830  -3.6803  -3.6760  -3.6687  -3.6627  -3.6464
    -3.6387  -3.6325  -3.6255  -3.6021  -3.6003  -3.5972  -3.5962  -3.5892
    -3.5782  -3.5727  -3.5610  -3.5539  -3.5491  -3.5361  -3.5357  -3.5305
    -3.5282  -3.5256  -3.5209  -3.5188  -3.5033  -3.5014  -3.4895  -3.4719
    -3.4542  -3.4485  -3.4477  -3.4443  -3.4341  -3.4261  -3.4149  -3.4141
    -3.4105  -3.3821  -3.3798  -3.3755  -3.3247  -3.3118  -3.2280  -3.2097
    -3.1787  -3.1647  -3.1528  -3.1521  -3.1397  -3.1339  -3.1246  -3.1126
    -3.0994  -3.0547  -3.0409  -3.0101  -2.9978  -2.9773  -2.9662  -2.9592
    -2.9481  -2.9410  -2.9186  -2.9064  -2.8949  -2.8912  -2.8636  -2.8075
    -2.7604  -2.7370  -2.7141  -2.6891  -2.6856  -2.6493  -2.6429  -2.6416
    -2.6292  -2.6264  -2.6223  -2.5895  -2.5625  -2.5561  -2.5535  -2.5362
    -2.5297  -2.5266  -2.5226  -2.4939  -2.4806  -2.2549  -2.2433  -2.2276
    -2.1802  -2.1361  -2.1338  -2.1052  -1.9582  -1.9175  -1.8621  -1.8550
    -1.8335  -1.7900  -1.7896  -1.7664  -1.7595  -1.7359  -1.7339  -1.6908
    -1.6898  -1.6800  -1.6796  -1.6392  -1.5935  -1.5929  -1.5724  -1.5686
    -1.5535  -1.5291  -1.5280  -1.4964  -1.4882  -1.4785  -1.4506  -1.3969
[...]
    -1.0511  -1.0468  -1.0070  -1.0056  -0.9719  -0.9623  -0.9416  -0.9341
    -0.9330  -0.9324  -0.9278  -0.9137  -0.9022  -0.8952  -0.8818  -0.8724
    -0.8623  -0.8619  -0.8605  -0.8601  -0.8575  -0.8429  -0.8408  -0.8163
    -0.8124  -0.8092  -0.8022  -0.7910  -0.7828  -0.7771  -0.7663  -0.7612
    -0.7594  -0.7583  -0.7527  -0.7523  -0.7498  -0.7284  -0.7223  -0.7191
    -0.7051  -0.6903  -0.6891  -0.6877  -0.6852  -0.6767  -0.6752  -0.6733
    -0.6634  -0.6438  -0.6391  -0.6283  -0.5936  -0.5724  -0.5677  -0.5664
    -0.5562  -0.5476  -0.5452  -0.5359  -0.5273  -0.5203  -0.5071  -0.4972
    -0.4969  -0.4936  -0.4876  -0.4804  -0.4758  -0.4741  -0.4702  -0.4617
    -0.4582  -0.4571  -0.4563  -0.4322  -0.4303  -0.4216  -0.4207  -0.4110
    -0.4107  -0.4050  -0.3970  -0.3926  -0.3926  -0.3821  -0.3791  -0.3612
    -0.3346  -0.3154  -0.3134  -0.2874  -0.2839  -0.2672  -0.1991  -0.1684
    -0.0914  -0.0910  -0.0789  -0.0724   0.1278   0.1382   0.1399   0.1454
     0.1906   0.2052   0.2134   0.2141   0.2344   0.2377   0.2438   0.3678
     0.4117   0.4388

     the Fermi energy is    -2.6151 ev

!    total energy              =  -21093.74876518 Ry
     Harris-Foulkes estimate   =  -21093.74876396 Ry
     estimated scf accuracy    <          8.8E-11 Ry

     The total energy is the sum of the following terms:

     one-electron contribution = -743491.04204881 Ry
     hartree contribution      =  371641.81992913 Ry
     xc contribution           =   -2234.27798246 Ry
     ewald contribution        =  357864.58418777 Ry
     Dispersion Correction     =      -1.39239684 Ry
     one-center paw contrib.   =   -4873.44208546 Ry
     smearing contrib. (-TS)   =       0.00163148 Ry

     total magnetization       =   161.05 Bohr mag/cell
     absolute magnetization    =   167.67 Bohr mag/cell

     convergence has been achieved in  15 iterations

     negative rho (up, down):  2.489E-02 1.839E-02

     Forces acting on atoms (cartesian axes, Ry/au):

     atom    1 type  1   force =     0.00047961   -0.00027882    0.00921024
     atom    2 type  1   force =     0.00175532   -0.00246998   -0.01301860
     atom    3 type  1   force =    -0.00039549   -0.00034592    0.00890385
     atom    4 type  1   force =     0.00045587    0.00059421   -0.00820780
     atom    5 type  1   force =    -0.00001365   -0.00000554   -0.00000382
     atom    6 type  1   force =     0.00002873   -0.00004492    0.00003362
     atom    7 type  1   force =     0.00003380   -0.00002275   -0.00005338
     atom    8 type  1   force =     0.00001298    0.00001465    0.00001942
     atom    9 type  1   force =     0.00000418    0.00001267    0.00953119
     atom   10 type  1   force =    -0.00019862   -0.00014002    0.00929125
     atom   11 type  1   force =    -0.00033416    0.00125094   -0.00713991
     atom   12 type  1   force =     0.00091075    0.00072578   -0.01144974
     atom   13 type  1   force =     0.00000040   -0.00000712    0.00002444
     atom   14 type  1   force =     0.00004068    0.00001760   -0.00004989
     atom   15 type  1   force =    -0.00006765   -0.00004384    0.00003908
     atom   16 type  1   force =    -0.00002999   -0.00003744    0.00005128
     atom   17 type  1   force =    -0.00045021   -0.00023447    0.00885124
     atom   18 type  1   force =     0.00071662    0.00029704   -0.00822214
     atom   19 type  1   force =     0.00038438    0.00034091    0.00884339
     atom   20 type  1   force =     0.00066967   -0.00090093   -0.01138570
     atom   21 type  1   force =    -0.00000093    0.00003182   -0.00005025
     atom   22 type  1   force =     0.00002622   -0.00001482    0.00002055
     atom   23 type  1   force =    -0.00003595    0.00000903   -0.00005397
     atom   24 type  1   force =     0.00004517   -0.00007390   -0.00001659
     atom   25 type  1   force =     0.00000973    0.00000319    0.00785103
     atom   26 type  1   force =    -0.00072128    0.00100316    0.00963670
     atom   27 type  1   force =    -0.00009019   -0.00010516   -0.00653659
     atom   28 type  1   force =    -0.00104159    0.00076996   -0.00713667
     atom   29 type  1   force =     0.00000324   -0.00001041   -0.00010765
     atom   30 type  1   force =     0.00001807   -0.00003105   -0.00006832
     atom   31 type  1   force =    -0.00000349   -0.00001840    0.00003417
     atom   32 type  1   force =     0.00005900    0.00004083    0.00003801
     atom   33 type  1   force =    -0.00048517    0.00025282    0.00923433
     atom   34 type  1   force =    -0.00049148   -0.00057305   -0.00821107
     atom   35 type  1   force =    -0.00009152    0.00053382    0.00925263
     atom   36 type  1   force =    -0.00185738    0.00261964   -0.01301283
     atom   37 type  1   force =     0.00002093   -0.00000453    0.00000168
     atom   38 type  1   force =    -0.00000881   -0.00003351    0.00002273
     atom   39 type  1   force =    -0.00000417   -0.00002681    0.00000170
     atom   40 type  1   force =    -0.00001912    0.00002002    0.00001967
     atom   41 type  1   force =     0.00000903   -0.00001005    0.00813197
     atom   42 type  1   force =     0.00072261   -0.00099225    0.00971777
     atom   43 type  1   force =    -0.00097859   -0.00059736   -0.01145232
     atom   44 type  1   force =     0.00034163   -0.00120634   -0.00712209
     atom   45 type  1   force =     0.00000012   -0.00000591   -0.00004591
     atom   46 type  1   force =    -0.00001088    0.00001308   -0.00007039
     atom   47 type  1   force =     0.00003934    0.00001169    0.00004879
     atom   48 type  1   force =     0.00007488    0.00002695    0.00004588
     atom   49 type  1   force =     0.00045752    0.00024933    0.00891686
     atom   50 type  1   force =    -0.00057793    0.00084514   -0.01144475
     atom   51 type  1   force =     0.00011257   -0.00055399    0.00921997
     atom   52 type  1   force =    -0.00070463   -0.00019899   -0.00820226
     atom   53 type  1   force =     0.00000424   -0.00004414   -0.00005318
     atom   54 type  1   force =    -0.00003361    0.00003736   -0.00001828
     atom   55 type  1   force =     0.00000425    0.00000763   -0.00000343
     atom   56 type  1   force =    -0.00002745   -0.00001642    0.00002194
     atom   57 type  1   force =    -0.00003742   -0.00001366    0.00953732
     atom   58 type  1   force =     0.00019025    0.00014881    0.00928606
     atom   59 type  1   force =     0.00104040   -0.00069483   -0.00712428
     atom   60 type  1   force =     0.00015333    0.00007595   -0.00654469
     atom   61 type  1   force =     0.00000056   -0.00000683    0.00002645
     atom   62 type  1   force =    -0.00003629   -0.00003640   -0.00004992
     atom   63 type  1   force =    -0.00006046   -0.00007394    0.00004689
     atom   64 type  1   force =     0.00000556   -0.00001569    0.00003542
     atom   65 type  2   force =    -0.00001070   -0.00002703   -0.00001968
     atom   66 type  3   force =    -0.00001283   -0.00003683    0.00018769

     Total force =     0.000400     Total SCF correction =     0.000022

     bfgs converged in  11 scf cycles and  10 bfgs steps
     (criteria: energy <  7.3E-07 Ry, force <  3.9E-04 Ry/Bohr)

     End of BFGS Geometry Optimization

     Final energy   =  -21093.7487651830 Ry
Begin final coordinates

ATOMIC_POSITIONS (angstrom)
Fe       1.654912953   1.170200133   0.000000000    0   0   0
Fe       0.000000000   0.000000000   2.026984232    0   0   0
Fe       4.964738858   3.510600399   0.000000000    0   0   0
Fe       3.309825906   2.340400266   2.026984232    0   0   0
Fe       1.674869788   1.169821379   4.025299490
Fe       3.317758244   9.351111482   5.996216418
Fe       4.974862935   3.522325075   4.041253347
Fe       3.365433207   2.336647033   6.014646916
Fe       2.482363858   3.510600399   0.000000000    0   0   0
Fe       4.137287953   1.170200133   0.000000000    0   0   0
Fe       0.827450906   2.340400266   2.026984232    0   0   0
Fe       2.482375000   0.000000000   2.026984232    0   0   0
Fe       2.482458544   3.510802569   4.040526527
Fe       4.160882165   1.187097454   4.032598706
Fe       0.861713569   2.322862434   5.999661182
Fe       2.495702275   0.009546468   6.013120226
Fe       6.619662953   1.170200133   0.000000000    0   0   0
Fe       4.964750000   0.000000000   2.026984232    0   0   0
Fe       9.929488858   3.510600399   0.000000000    0   0   0
Fe       8.274575906   2.340400266   2.026984232    0   0   0
Fe       6.634045761   1.176010576   4.041136330
Fe       4.979902476   0.053654479   6.014896316
Fe       9.919822850   3.499344102   4.041143771
Fe       8.362577142   2.217053589   5.980992787
Fe       7.447113858   3.510600399   0.000000000    0   0   0
Fe       9.102037953   1.170200133   0.000000000    0   0   0
Fe       5.792200906   2.340400266   2.026984232    0   0   0
Fe       7.447125000   0.000000000   2.026984232    0   0   0
Fe       7.447431572   3.510767008   4.000456663
Fe       9.119323008   1.146300335   4.007569066
Fe       5.880839952   2.402966972   6.052157081
Fe      10.762879359   9.324287358   5.999655815
Fe       3.309814764   5.851000664   0.000000000    0   0   0
Fe       1.654901811   4.680800531   2.026984232    0   0   0
Fe       6.619640670   8.191400930   0.000000000    0   0   0
Fe       4.964727717   7.021200797   2.026984232    0   0   0
Fe       3.290255552   5.851728029   4.025327785
Fe      11.529948714   4.684936967   6.014876072
Fe       6.625956134   8.210492010   4.025298557
Fe       4.957390833   7.032312031   5.995491621
Fe       4.137265670   8.191400930   0.000000000    0   0   0
Fe       5.792189764   5.851000664   0.000000000    0   0   0
Fe      12.411852717   7.021200797   2.026984232    0   0   0
Fe       4.137276811   4.680800531   2.026984232    0   0   0
Fe       4.137374745   8.191762236   4.022665774
Fe       5.775434408   5.875220755   4.007435075
Fe      12.399145624   7.012373778   6.013080614
Fe       4.103898376   4.698920740   5.999794905
Fe       8.274564764   5.851000664   0.000000000    0   0   0
Fe       6.619651811   4.680800531   2.026984232    0   0   0
Fe      11.584390670   8.191400930   0.000000000    0   0   0
Fe       9.929477717   7.021200797   2.026984232    0   0   0
Fe       8.260736095   5.845831982   4.041254064
Fe       6.532530644   4.805173412   5.980841720
Fe      11.578587425   8.172872712   4.025293491
Fe       9.915350416   6.968368156   6.014544157
Fe       9.102015670   8.191400930   0.000000000    0   0   0
Fe      10.756939764   5.851000664   0.000000000    0   0   0
Fe       7.447102717   7.021200797   2.026984232    0   0   0
Fe       9.102026811   4.680800531   2.026984232    0   0   0
Fe       9.102313764   8.191856135   4.040510293
Fe      10.733758028   5.834771386   4.032621388
Fe       7.441986104   7.059632555   5.999759536
Fe       9.014929512   4.619034864   6.052020219
N        7.448658588   3.512043677   6.999694391
H        7.448740133   3.512579245   8.026883892
End final coordinates

     Writing output data file Fe_NH_paper_480c_ESM_p25.save/

     General routines

     Parallel routines

   This run was terminated on:  11:44: 9  11Jun2022

   JOB DONE.