     Program PWSCF v.6.4.1 starts on 13Jun2022 at  3: 3: 3

     K-points division:     npool     =       8
     R & G space division:  proc/nbgrp/npool/nimage =      20
     Waiting for input...
     Reading input from standard input
Warning: card &CELL ignored
Warning: card / ignored

     Current dimensions of program PWSCF are:
     Max number of different atomic species (ntypx) = 10
     Max number of k-points (npk) =  40000
     Max angular momentum in pseudopotentials (lmaxx) =  3

     IMPORTANT: XC functional enforced from input :
     Exchange-correlation      = PBE ( 1  4  3  4 0 0)
     Any further DFT definition will be discarded
     Please, verify this is what you really want

               file Fe.pbe-spn-kjpaw_psl.0.2.1.UPF: wavefunction(s)  3D renormalized

     Parameters for Dispersion (Grimme-D2) Correction:
       atom      VdW radius       C_6

        Fe         2.952        374.666
        N          2.640         42.670
        H          1.892          4.857

     bravais-lattice index     =            0
     lattice parameter (alat)  =      18.7640  a.u.
     unit-cell volume          =   16360.3163 (a.u.)^3
     number of atoms/cell      =           66
     number of atomic types    =            3
     number of electrons       =      1030.00
     number of Kohn-Sham states=          618
     kinetic-energy cutoff     =      60.0000  Ry
     charge density cutoff     =     480.0000  Ry
     convergence threshold     =      1.0E-08
     mixing beta               =       0.2000
     number of iterations used =           10  local-TF  mixing
     Exchange-correlation      = PBE ( 1  4  3  4 0 0)
     nstep                     =           50

     Effective Screening Medium Method
     Boundary Conditions: Metal-Slab-Metal
     field strength                   =    -0.01 Ry/a.u.
     grid points for fit at edges     =        4

     celldm(1)=  18.764036  celldm(2)=   0.000000  celldm(3)=   0.000000
     celldm(4)=   0.000000  celldm(5)=   0.000000  celldm(6)=   0.000000

     crystal axes: (cart. coord. in units of alat)
               a(1) = (   1.000000   0.000000   0.000000 )
               a(2) = (   0.333330   0.942807   0.000000 )
               a(3) = (   0.000000   0.000000   2.626577 )

     reciprocal axes: (cart. coord. in units 2 pi/alat)
               b(1) = (  1.000000 -0.353551  0.000000 )
               b(2) = (  0.000000  1.060663  0.000000 )
               b(3) = (  0.000000  0.000000  0.380724 )

     PseudoPot. # 1 for Fe read from file:
     ../../SSSP/Fe.pbe-spn-kjpaw_psl.0.2.1.UPF
     MD5 check sum: e86618425769142926afa95317d90200
     Pseudo is Projector augmented-wave + core cor, Zval = 16.0
     Generated using "atomic" code by A. Dal Corso v.5.0.99 svn rev. 10869
     Shape of augmentation charge: PSQ
     Using radial grid of 1191 points,  6 beta functions with:
                l(1) =   0
                l(2) =   0
                l(3) =   1
                l(4) =   1
                l(5) =   2
                l(6) =   2
     Q(r) pseudized with 0 coefficients

     PseudoPot. # 2 for N  read from file:
     ../../SSSP/N.pbe-n-radius_5.UPF
     MD5 check sum: 16739722b17309cd8fe442a2ace49922
     Pseudo is Ultrasoft + core correction, Zval =  5.0
     Generated using "atomic" code by A. Dal Corso v.5.1
     Using radial grid of 1085 points,  4 beta functions with:
                l(1) =   0
                l(2) =   0
                l(3) =   1
                l(4) =   1
     Q(r) pseudized with 0 coefficients

     PseudoPot. # 3 for H  read from file:
     ../../SSSP/H.pbe-rrkjus_psl.1.0.0.UPF
     MD5 check sum: f52b6d4d1c606e5624b1dc7b2218f220
     Pseudo is Ultrasoft, Zval =  1.0
     Generated using "atomic" code by A. Dal Corso v.5.1
     Using radial grid of  929 points,  2 beta functions with:
                l(1) =   0
                l(2) =   0
     Q(r) pseudized with 0 coefficients

     atomic species   valence    mass     pseudopotential
        Fe            16.00    55.84500     Fe( 1.00)
        N              5.00    14.00700     N ( 1.00)
        H              1.00     1.00800     H ( 1.00)

     Starting magnetic structure
     atomic species   magnetization
        Fe           0.100
        N            0.100
        H            0.100

     No symmetry found

   Cartesian axes

     site n.     atom                  positions (alat units)
         1           Fe  tau(   1) = (   0.1666663   0.1178509   0.0000000  )
         2           Fe  tau(   2) = (   0.0000000   0.0000000   0.2041376  )
         3           Fe  tau(   3) = (   0.4999989   0.3535526   0.0000000  )
         4           Fe  tau(   4) = (   0.3333326   0.2357017   0.2041376  )
         5           Fe  tau(   5) = (   0.1691633   0.1174609   0.4053662  )
         6           Fe  tau(   6) = (   0.3358127   0.9392503   0.6061139  )
         7           Fe  tau(   7) = (   0.4995100   0.3559898   0.4071377  )
         8           Fe  tau(   8) = (   0.3418436   0.2351322   0.6065451  )
         9           Fe  tau(   9) = (   0.2499989   0.3535526   0.0000000  )
        10           Fe  tau(  10) = (   0.4166663   0.1178509   0.0000000  )
        11           Fe  tau(  11) = (   0.0833326   0.2357017   0.2041376  )
        12           Fe  tau(  12) = (   0.2500000   0.0000000   0.2041376  )
        13           Fe  tau(  13) = (   0.2500475   0.3534024   0.4076456  )
        14           Fe  tau(  14) = (   0.4190214   0.1195197   0.4059972  )
        15           Fe  tau(  15) = (   0.0921065   0.2318890   0.6066743  )
        16           Fe  tau(  16) = (   0.2526868   0.0019110   0.6060625  )
        17           Fe  tau(  17) = (   0.6666663   0.1178509   0.0000000  )
        18           Fe  tau(  18) = (   0.5000000   0.0000000   0.2041376  )
        19           Fe  tau(  19) = (   0.9999989   0.3535526   0.0000000  )
        20           Fe  tau(  20) = (   0.8333326   0.2357017   0.2041376  )
        21           Fe  tau(  21) = (   0.6687842   0.1165435   0.4071110  )
        22           Fe  tau(  22) = (   0.5022839   0.0081767   0.6065702  )
        23           Fe  tau(  23) = (   1.0003529   0.3509213   0.4068188  )
        24           Fe  tau(  24) = (   0.8517557   0.2096697   0.6024432  )
        25           Fe  tau(  25) = (   0.7499989   0.3535526   0.0000000  )
        26           Fe  tau(  26) = (   0.9166663   0.1178509   0.0000000  )
        27           Fe  tau(  27) = (   0.5833326   0.2357017   0.2041376  )
        28           Fe  tau(  28) = (   0.7500000   0.0000000   0.2041376  )
        29           Fe  tau(  29) = (   0.7499331   0.3534612   0.4087050  )
        30           Fe  tau(  30) = (   0.9195664   0.1133897   0.4030117  )
        31           Fe  tau(  31) = (   0.5924243   0.2420555   0.6047444  )
        32           Fe  tau(  32) = (   1.0846683   0.9333764   0.6072549  )
        33           Fe  tau(  33) = (   0.3333315   0.5892543   0.0000000  )
        34           Fe  tau(  34) = (   0.1666652   0.4714034   0.2041376  )
        35           Fe  tau(  35) = (   0.6666640   0.8249560   0.0000000  )
        36           Fe  tau(  36) = (   0.4999978   0.7071052   0.2041376  )
        37           Fe  tau(  37) = (   0.3307394   0.5894524   0.4057984  )
        38           Fe  tau(  38) = (   1.1584558   0.4708203   0.6061482  )
        39           Fe  tau(  39) = (   0.6671439   0.8274292   0.4053888  )
        40           Fe  tau(  40) = (   0.4974820   0.7106282   0.6062117  )
        41           Fe  tau(  41) = (   0.4166640   0.8249560   0.0000000  )
        42           Fe  tau(  42) = (   0.5833315   0.5892543   0.0000000  )
        43           Fe  tau(  43) = (   0.2499978   0.7071052   0.2041376  )
        44           Fe  tau(  44) = (   0.4166652   0.4714034   0.2041376  )
        45           Fe  tau(  45) = (   0.4164663   0.8248037   0.4039055  )
        46           Fe  tau(  46) = (   0.5800715   0.5934920   0.4030364  )
        47           Fe  tau(  47) = (   1.2457669   0.7041012   0.6065939  )
        48           Fe  tau(  48) = (   0.4082550   0.4758307   0.6072775  )
        49           Fe  tau(  49) = (   0.8333315   0.5892543   0.0000000  )
        50           Fe  tau(  50) = (   0.6666652   0.4714034   0.2041376  )
        51           Fe  tau(  51) = (   1.1666640   0.8249560   0.0000000  )
        52           Fe  tau(  52) = (   0.9999978   0.7071052   0.2041376  )
        53           Fe  tau(  53) = (   0.8309418   0.5904319   0.4068368  )
        54           Fe  tau(  54) = (   0.6483004   0.4973721   0.6024232  )
        55           Fe  tau(  55) = (   1.1660042   0.8224414   0.4057891  )
        56           Fe  tau(  56) = (   0.9966937   0.6995543   0.6061145  )
        57           Fe  tau(  57) = (   0.9166640   0.8249560   0.0000000  )
        58           Fe  tau(  58) = (   1.0833315   0.5892543   0.0000000  )
        59           Fe  tau(  59) = (   0.7499978   0.7071052   0.2041376  )
        60           Fe  tau(  60) = (   0.9166652   0.4714034   0.2041376  )
        61           Fe  tau(  61) = (   0.9165456   0.8250294   0.4076429  )
        62           Fe  tau(  62) = (   1.0807468   0.5874373   0.4058584  )
        63           Fe  tau(  63) = (   0.7492890   0.7166001   0.6067028  )
        64           Fe  tau(  64) = (   0.9077833   0.4650771   0.6045057  )
        65           N   tau(  65) = (   0.7501705   0.3536255   0.6386530  )
        66           H   tau(  66) = (   0.4630012   0.8578060   0.7021866  )

     number of k points=    10  Methfessel-Paxton smearing, width (Ry)=  0.0100
                       cart. coord. in units 2pi/alat
        k(    1) = (   0.0000000   0.0000000   0.0000000), wk =   0.0625000
        k(    2) = (   0.0000000   0.2651656   0.0000000), wk =   0.1250000
        k(    3) = (   0.0000000  -0.5303313   0.0000000), wk =   0.0625000
        k(    4) = (   0.2500000  -0.0883878   0.0000000), wk =   0.1250000
        k(    5) = (   0.2500000   0.1767779   0.0000000), wk =   0.1250000
        k(    6) = (   0.2500000  -0.6187190   0.0000000), wk =   0.1250000
        k(    7) = (   0.2500000  -0.3535534   0.0000000), wk =   0.1250000
        k(    8) = (  -0.5000000   0.1767755   0.0000000), wk =   0.0625000
        k(    9) = (  -0.5000000   0.4419412   0.0000000), wk =   0.1250000
        k(   10) = (  -0.5000000  -0.3535558   0.0000000), wk =   0.0625000

     Check: negative core charge=   -0.000039

     Initial potential from superposition of free atoms

     starting charge 1029.97193, renormalised to 1030.00000

     negative rho (up, down):  2.476E-02 2.546E-03
     Starting wfcs are  837 randomized atomic wfcs
     Checking if some PAW data can be deallocated...

     Self-consistent Calculation

     iteration #  1     ecut=    60.00 Ry     beta= 0.20
     Davidson diagonalization with overlap
     c_bands:  3 eigenvalues not converged
     ethr =  1.00E-04,  avg # of iterations = 18.4

     negative rho (up, down):  1.318E-02 3.556E-03

     total energy              =  -21089.12511718 Ry
     Harris-Foulkes estimate   =  -21095.44997735 Ry
[...]
     atom:   57    charge:   12.5879    magn:    2.3501    constr:    0.0000
     atom:   58    charge:   12.5876    magn:    2.3552    constr:    0.0000
     atom:   59    charge:   12.5772    magn:    2.2093    constr:    0.0000
     atom:   60    charge:   12.5761    magn:    2.2218    constr:    0.0000
     atom:   61    charge:   12.5772    magn:    2.2038    constr:    0.0000
     atom:   62    charge:   12.5805    magn:    2.1838    constr:    0.0000
     atom:   63    charge:   12.5904    magn:    2.3376    constr:    0.0000
     atom:   64    charge:   12.5836    magn:    2.1362    constr:    0.0000
     atom:   65    charge:    3.7461    magn:   -0.1343    constr:    0.0000
     atom:   66    charge:    0.9771    magn:   -0.0240    constr:    0.0000

     End of self-consistent calculation

 ------ SPIN UP ------------

[...]

 ------ SPIN DOWN ----------

[...]

          k = 0.2500-0.3536 0.0000 (128397 PWs)   bands (ev):

[...]

          k =-0.5000-0.3536 0.0000 (128560 PWs)   bands (ev):

   -92.7810 -92.7806 -92.3570 -92.3549 -92.2510 -92.2501 -92.2297 -92.2017
   -92.1935 -92.1318 -92.1235 -92.1136 -92.1121 -92.1042 -92.1009 -92.0997
   -92.0883 -92.0882 -92.0850 -92.0790 -92.0781 -92.0751 -92.0727 -92.0720
   -92.0692 -92.0670 -92.0657 -92.0620 -92.0617 -92.0576 -92.0567 -92.0566
   -92.0550 -92.0546 -92.0518 -92.0448 -92.0404 -92.0395 -92.0352 -92.0352
   -92.0339 -92.0302 -92.0293 -92.0261 -92.0254 -92.0229 -92.0217 -92.0205
   -92.0152 -92.0096 -92.0057 -92.0041 -92.0035 -92.0032 -92.0016 -92.0013
   -91.9990 -91.9975 -91.9975 -91.9972 -91.9821 -91.9798 -91.9783 -91.9754
   -59.3217 -59.3136 -58.7861 -58.7747 -58.7113 -58.7019 -58.6685 -58.6635
   -58.4963 -58.4754 -58.4527 -58.4441 -58.4426 -58.4361 -58.4324 -58.4319
   -58.4107 -58.4097 -58.3985 -58.3959 -58.3930 -58.3869 -58.3767 -58.3750
   -58.3680 -58.3674 -58.3642 -58.3616 -58.3608 -58.3522 -58.3522 -58.3512
   -58.3488 -58.3481 -58.3420 -58.3370 -58.3364 -58.3300 -58.3262 -58.3262
   -58.3224 -58.3219 -58.3151 -58.3134 -58.3122 -58.3091 -58.3077 -58.3063
   -58.3060 -58.3016 -58.2965 -58.2933 -58.2888 -58.2838 -58.2822 -58.2819
   -58.2803 -58.2768 -58.2752 -58.2748 -58.2731 -58.2727 -58.2720 -58.2713
   -58.2694 -58.2666 -58.2647 -58.2646 -58.2635 -58.2581 -58.2560 -58.2525
   -58.2510 -58.2485 -58.2445 -58.2356 -58.2272 -58.2264 -58.2234 -58.2204
   -58.2155 -58.2140 -58.2072 -58.2068 -58.2035 -58.2023 -58.1875 -58.1859
   -58.1843 -58.1821 -58.1809 -58.1767 -58.1757 -58.1707 -58.1690 -58.1686
   -58.1663 -58.1616 -58.1588 -58.1577 -58.1558 -58.1532 -58.1508 -58.1485
   -58.1481 -58.1445 -58.1412 -58.1352 -58.1325 -58.1322 -58.1305 -58.1302
   -58.1274 -58.1266 -58.1247 -58.1228 -58.1221 -58.1205 -58.1202 -58.1173
   -58.1139 -58.1108 -58.1105 -58.1084 -58.1029 -58.1006 -58.0976 -58.0963
   -58.0958 -58.0944 -58.0912 -58.0899 -58.0893 -58.0877 -58.0837 -58.0808
   -58.0780 -58.0754 -58.0751 -58.0707 -58.0698 -58.0687 -58.0676 -58.0670
   -58.0661 -58.0649 -58.0635 -58.0625 -58.0602 -58.0590 -58.0584 -58.0583
   -58.0570 -58.0542 -58.0519 -58.0508 -58.0492 -58.0489 -58.0466 -58.0460
   -58.0412 -58.0406 -58.0392 -58.0355 -58.0340 -58.0334 -58.0322 -58.0322
   -58.0318 -58.0309 -58.0300 -58.0290 -58.0283 -58.0278 -58.0276 -58.0270
   -58.0242 -58.0238 -58.0203 -58.0188 -58.0174 -58.0161 -58.0145 -58.0121
   -58.0108 -58.0101 -58.0085 -58.0065 -58.0034 -58.0029 -57.9997 -57.9973
   -22.6914 -14.1533 -14.1068 -13.6087 -13.5923 -13.1672 -13.1280 -12.9914
   -12.6057 -12.4645 -12.1128 -11.9975 -11.9028 -11.5061 -11.4523 -11.4352
   -11.2892 -11.0564 -10.8233 -10.6669 -10.6525 -10.6348 -10.6228 -10.6136
   -10.5488 -10.5486 -10.5189 -10.4693 -10.4508 -10.3756 -10.2100 -10.0966
   -10.0916 -10.0826 -10.0664 -10.0142  -9.9732  -9.8931  -9.7168  -9.6344
    -9.6315  -9.6189  -9.5889  -9.5769  -9.5656  -9.5239  -9.4918  -9.4621
    -9.4505  -9.3965  -9.3361  -9.3310  -9.3046  -9.2930  -9.2844  -9.2760
    -9.1023  -9.0795  -9.0632  -9.0597  -9.0322  -9.0007  -8.9623  -8.8305
    -8.7895  -8.7745  -8.7659  -8.7227  -8.7222  -8.7120  -8.6438  -8.6060
    -8.5859  -8.5691  -8.5385  -8.5338  -8.5230  -8.5028  -8.4967  -8.4875
    -8.4738  -8.4648  -8.4174  -8.3957  -8.3953  -8.3883  -8.3881  -8.3813
    -8.3546  -8.3495  -8.3468  -8.3141  -8.3042  -8.2180  -8.1820  -8.1788
    -8.1718  -8.1695  -8.1027  -8.0790  -8.0528  -8.0402  -8.0368  -8.0316
    -8.0184  -8.0155  -8.0119  -8.0052  -7.9666  -7.9543  -7.9537  -7.9476
    -7.9436  -7.9364  -7.9342  -7.9215  -7.9176  -7.9143  -7.9061  -7.9015
    -7.8859  -7.8772  -7.8665  -7.8645  -7.8590  -7.8588  -7.8502  -7.8345
    -7.8272  -7.8144  -7.7983  -7.7935  -7.7922  -7.7911  -7.7868  -7.7810
    -7.7680  -7.7598  -7.7402  -7.7375  -7.6991  -7.6123  -7.5812  -7.5669
    -7.5476  -7.5393  -7.5362  -7.5254  -7.5232  -7.5121  -7.5033  -7.4845
    -7.4825  -7.4117  -7.3819  -7.3770  -7.3621  -7.3548  -7.3520  -7.3431
    -7.3341  -7.3276  -7.2930  -7.2783  -7.2769  -7.2533  -7.2099  -7.1821
    -7.1559  -7.1301  -7.1190  -7.0674  -7.0525  -7.0230  -7.0204  -7.0115
    -6.9994  -6.9853  -6.9627  -6.9571  -6.9402  -6.9219  -6.9115  -6.8955
    -6.8898  -6.8786  -6.8440  -6.8385  -6.7826  -6.6610  -6.6333  -6.6261
    -6.5186  -6.4943  -6.4909  -6.3771  -6.3551  -6.3343  -6.3132  -6.2559
    -6.2252  -6.2224  -6.2193  -6.1663  -6.1496  -6.1216  -6.1166  -6.0874
    -6.0768  -6.0589  -6.0100  -5.9828  -5.9733  -5.9712  -5.9699  -5.9372
    -5.8765  -5.8613  -5.8595  -5.8565  -5.8464  -5.8308  -5.7948  -5.7759
[...]
    -5.4333  -5.4324  -5.4180  -5.3795  -5.3789  -5.3728  -5.3655  -5.3558
    -5.3204  -5.3185  -5.3152  -5.3011  -5.2993  -5.2912  -5.2655  -5.2629
    -5.2601  -5.2443  -5.2429  -5.2264  -5.2242  -5.2152  -5.2122  -5.2086
    -5.1943  -5.1873  -5.1842  -5.1599  -5.1569  -5.1522  -5.1465  -5.1358
    -5.1277  -5.1240  -5.1218  -5.1183  -5.1174  -5.1084  -5.0949  -5.0905
    -5.0843  -5.0749  -5.0715  -5.0505  -5.0473  -5.0464  -5.0376  -5.0356
    -5.0270  -5.0233  -5.0213  -5.0006  -4.9885  -4.9849  -4.9798  -4.9792
    -4.9775  -4.9522  -4.9431  -4.9419  -4.9229  -4.9224  -4.9180  -4.9057
    -4.9040  -4.8935  -4.8892  -4.8596  -4.8568  -4.8499  -4.8489  -4.8381
    -4.8341  -4.8269  -4.8198  -4.8111  -4.8089  -4.8087  -4.8034  -4.7991
    -4.7946  -4.7895  -4.7728  -4.7628  -4.7627  -4.7529  -4.7504  -4.7355
    -4.7283  -4.7217  -4.6987  -4.6962  -4.6759  -4.6706  -4.6699  -4.6463
    -4.6428  -4.6313  -4.5111  -4.4770  -4.4413  -4.4270  -4.3995  -4.3895
    -4.2849  -4.2257  -4.2144  -4.2066  -4.2002  -4.1733  -4.1660  -4.1475
    -4.1334  -4.1119

     the Fermi energy is    -6.9669 ev

!    total energy              =  -21093.78502258 Ry
     Harris-Foulkes estimate   =  -21093.78502264 Ry
     estimated scf accuracy    <          6.1E-11 Ry

     The total energy is the sum of the following terms:

     one-electron contribution = -744338.83821359 Ry
     hartree contribution      =  371900.37550257 Ry
     xc contribution           =   -2234.32814478 Ry
     ewald contribution        =  358453.85135201 Ry
     Dispersion Correction     =      -1.39616798 Ry
     one-center paw contrib.   =   -4873.45269625 Ry
     smearing contrib. (-TS)   =       0.00334543 Ry

     total magnetization       =   160.40 Bohr mag/cell
     absolute magnetization    =   167.38 Bohr mag/cell

     convergence has been achieved in  13 iterations

     negative rho (up, down):  2.507E-02 1.922E-02

     Forces acting on atoms (cartesian axes, Ry/au):

     atom    1 type  1   force =     0.00010338    0.00062598    0.00865318
     atom    2 type  1   force =     0.00263694   -0.00395584   -0.01573948
     atom    3 type  1   force =    -0.00086868   -0.00064345    0.00840591
     atom    4 type  1   force =     0.00071606    0.00128129   -0.00806280
     atom    5 type  1   force =     0.00004959    0.00000175   -0.00001418
     atom    6 type  1   force =     0.00003674   -0.00002137   -0.00002797
     atom    7 type  1   force =    -0.00004746   -0.00002008   -0.00000656
     atom    8 type  1   force =     0.00001769    0.00002589    0.00003037
     atom    9 type  1   force =     0.00006626    0.00008855    0.00813271
     atom   10 type  1   force =    -0.00064175   -0.00047275    0.00862490
     atom   11 type  1   force =     0.00108402   -0.00022559   -0.00870959
     atom   12 type  1   force =     0.00044341    0.00037035   -0.01267282
     atom   13 type  1   force =     0.00000667    0.00002841   -0.00003122
     atom   14 type  1   force =     0.00002560    0.00001952    0.00002488
     atom   15 type  1   force =     0.00007018    0.00004714   -0.00005220
     atom   16 type  1   force =    -0.00000092   -0.00000142    0.00005344
     atom   17 type  1   force =    -0.00090912   -0.00055764    0.00840945
     atom   18 type  1   force =     0.00145064    0.00026665   -0.00803893
     atom   19 type  1   force =     0.00076746    0.00061601    0.00849408
     atom   20 type  1   force =    -0.00126561    0.00153821   -0.00296128
     atom   21 type  1   force =    -0.00003722   -0.00004047   -0.00000981
     atom   22 type  1   force =     0.00003074    0.00000829    0.00003500
     atom   23 type  1   force =     0.00005705    0.00003050   -0.00000005
     atom   24 type  1   force =    -0.00004295    0.00005247   -0.00003461
     atom   25 type  1   force =     0.00003159   -0.00003162    0.00726351
     atom   26 type  1   force =    -0.00102170    0.00133819    0.00816566
     atom   27 type  1   force =     0.00129915    0.00084647   -0.00345063
     atom   28 type  1   force =     0.00007779   -0.00108372   -0.00800108
     atom   29 type  1   force =    -0.00001642   -0.00001044    0.00008098
     atom   30 type  1   force =    -0.00000337   -0.00000956    0.00006003
     atom   31 type  1   force =     0.00005368    0.00004032   -0.00002574
     atom   32 type  1   force =    -0.00006532   -0.00004915   -0.00003311
     atom   33 type  1   force =     0.00007594   -0.00072684    0.00844557
     atom   34 type  1   force =    -0.00059067   -0.00117487   -0.00812072
     atom   35 type  1   force =     0.00062544   -0.00010965    0.00865994
     atom   36 type  1   force =    -0.00290829    0.00387246   -0.01572143
     atom   37 type  1   force =    -0.00002656   -0.00000505   -0.00002096
     atom   38 type  1   force =     0.00001951    0.00006519    0.00003365
     atom   39 type  1   force =     0.00001921    0.00004689   -0.00001500
     atom   40 type  1   force =    -0.00000685    0.00004356   -0.00002713
     atom   41 type  1   force =     0.00015161    0.00005068    0.00906806
     atom   42 type  1   force =     0.00091925   -0.00140812    0.00814348
     atom   43 type  1   force =    -0.00092892   -0.00057872   -0.01211573
     atom   44 type  1   force =    -0.00102162    0.00042838   -0.00793426
     atom   45 type  1   force =     0.00000602    0.00000680    0.00001972
     atom   46 type  1   force =    -0.00001109    0.00000223    0.00006418
     atom   47 type  1   force =    -0.00003963   -0.00002838   -0.00000638
     atom   48 type  1   force =    -0.00007069   -0.00004236   -0.00002884
     atom   49 type  1   force =     0.00081168    0.00055730    0.00850949
     atom   50 type  1   force =     0.00108419   -0.00181555   -0.00291041
     atom   51 type  1   force =    -0.00066662    0.00032623    0.00849989
     atom   52 type  1   force =    -0.00131306   -0.00013948   -0.00815012
     atom   53 type  1   force =     0.00004498    0.00004209   -0.00000182
     atom   54 type  1   force =     0.00003415   -0.00005316   -0.00003747
     atom   55 type  1   force =    -0.00001143   -0.00002446   -0.00002586
     atom   56 type  1   force =     0.00006373   -0.00000071    0.00003447
     atom   57 type  1   force =     0.00008622   -0.00001527    0.00814396
     atom   58 type  1   force =     0.00051967    0.00034611    0.00860185
     atom   59 type  1   force =     0.00015352    0.00110001   -0.00864436
     atom   60 type  1   force =    -0.00113809   -0.00085817   -0.00339898
     atom   61 type  1   force =     0.00002814   -0.00000677   -0.00003379
     atom   62 type  1   force =    -0.00000887   -0.00000436    0.00000676
     atom   63 type  1   force =     0.00007168    0.00005393   -0.00005161
     atom   64 type  1   force =    -0.00007117   -0.00004565    0.00000314
     atom   65 type  2   force =    -0.00000951   -0.00000523   -0.00009879
     atom   66 type  3   force =     0.00000400   -0.00000194   -0.00005217

     Total force =     0.000375     Total SCF correction =     0.000047
     SCF correction compared to forces is large: reduce conv_thr to get better values

     bfgs converged in  10 scf cycles and   9 bfgs steps
     (criteria: energy <  7.3E-07 Ry, force <  3.9E-04 Ry/Bohr)

     End of BFGS Geometry Optimization

     Final energy   =  -21093.7850225781 Ry
Begin final coordinates

ATOMIC_POSITIONS (angstrom)
Fe       1.654912953   1.170200133   0.000000000    0   0   0
Fe       0.000000000   0.000000000   2.026984232    0   0   0
Fe       4.964738858   3.510600399   0.000000000    0   0   0
Fe       3.309825906   2.340400266   2.026984232    0   0   0
Fe       1.679526763   1.167093211   4.026201968
Fe       3.335619523   9.326848379   6.017188364
Fe       4.959608310   3.535219285   4.043023967
Fe       3.393832505   2.334893145   6.022431305
Fe       2.482363858   3.510600399   0.000000000    0   0   0
Fe       4.137287953   1.170200133   0.000000000    0   0   0
Fe       0.827450906   2.340400266   2.026984232    0   0   0
Fe       2.482375000   0.000000000   2.026984232    0   0   0
Fe       2.482734550   3.509609673   4.048838306
Fe       4.160670968   1.186912143   4.031868992
Fe       0.912669523   2.302140754   6.027362897
Fe       2.508702269   0.018703157   6.017524866
Fe       6.619662953   1.170200133   0.000000000    0   0   0
Fe       4.964750000   0.000000000   2.026984232    0   0   0
Fe       9.929488858   3.510600399   0.000000000    0   0   0
Fe       8.274575906   2.340400266   2.026984232    0   0   0
Fe       6.640971716   1.156958453   4.042746254
Fe       4.987375545   0.080905937   6.022547506
Fe       9.933237676   3.484573387   4.039812441
Fe       8.457907298   2.081491841   5.979904884
Fe       7.447113858   3.510600399   0.000000000    0   0   0
Fe       9.102037953   1.170200133   0.000000000    0   0   0
Fe       5.792200906   2.340400266   2.026984232    0   0   0
Fe       7.447125000   0.000000000   2.026984232    0   0   0
Fe       7.446449658   3.509706175   4.058561166
Fe       9.131282463   1.125965222   4.000701695
Fe       5.881940137   2.403264813   6.003501260
Fe      10.772145194   9.268673803   6.031716932
Fe       3.309814764   5.851000664   0.000000000    0   0   0
Fe       1.654901811   4.680800531   2.026984232    0   0   0
Fe       6.619640670   8.191400930   0.000000000    0   0   0
Fe       4.964727717   7.021200797   2.026984232    0   0   0
Fe       3.284492045   5.853324502   4.030480264
Fe      11.502523976   4.675228994   6.019713860
Fe       6.625012258   8.215557422   4.026391284
Fe       4.940580309   7.057059055   6.017848365
Fe       4.137265670   8.191400930   0.000000000    0   0   0
Fe       5.792189764   5.851000664   0.000000000    0   0   0
Fe       2.482352717   7.021200797   2.026984232    0   0   0
Fe       4.137276811   4.680800531   2.026984232    0   0   0
Fe       4.135902171   8.190389481   4.009870487
Fe       5.760087832   5.893433410   4.000912418
Fe      12.371715227   6.992786503   6.024648270
Fe       4.055093829   4.726352940   6.032012404
Fe       8.274564764   5.851000664   0.000000000    0   0   0
Fe       6.619651811   4.680800531   2.026984232    0   0   0
Fe      11.584390670   8.191400930   0.000000000    0   0   0
Fe       9.929477717   7.021200797   2.026984232    0   0   0
Fe       8.251048680   5.862945813   4.040039473
Fe       6.437093282   4.939212617   5.979631314
Fe      11.578245651   8.166715318   4.030324647
Fe       9.896703509   6.945831600   6.019243834
Fe       9.102015670   8.191400930   0.000000000    0   0   0
Fe      10.756939764   5.851000664   0.000000000    0   0   0
Fe       7.447102717   7.021200797   2.026984232    0   0   0
Fe       9.102026811   4.680800531   2.026984232    0   0   0
Fe       9.101209356   8.192032939   4.048806193
Fe      10.731384245   5.833050372   4.031234252
Fe       7.438978364   7.113915868   6.027705474
Fe       9.013672044   4.617777028   6.002047235
N        7.448222789   3.510909588   6.333471881
H        4.597203058   8.516955986   6.970981378
End final coordinates

     Writing output data file Fe_N_H_paper_480c_ESM_pn25.save/

     General routines

     Parallel routines

   This run was terminated on:  23:45:47  13Jun2022

   JOB DONE.