     Program PWSCF v.6.7MaX starts on 16Jun2022 at 19:29:20

     K-points division:     npool     =       8
     R & G space division:  proc/nbgrp/npool/nimage =      32
     Waiting for input...
     Reading input from standard input
Warning: card &CELL ignored
Warning: card / ignored

     Current dimensions of program PWSCF are:
     Max number of different atomic species (ntypx) = 10
     Max number of k-points (npk) =  40000
     Max angular momentum in pseudopotentials (lmaxx) =  3
     file Fe.pbe-spn-kjpaw_psl.0.2.1.UPF: wavefunction(s)  3D renormalized

     IMPORTANT: XC functional enforced from input :
     Exchange-correlation= PBE
                           (   1   4   3   4   0   0   0)
     Any further DFT definition will be discarded
     Please, verify this is what you really want

     Parameters for Dispersion (Grimme-D2) Correction:
       atom      VdW radius       C_6

        Fe         2.952        374.666
        N          2.640         42.670
        H          1.892          4.857

     bravais-lattice index     =            0
     lattice parameter (alat)  =      18.7640  a.u.
     unit-cell volume          =   16360.3161 (a.u.)^3
     number of atoms/cell      =           66
     number of atomic types    =            3
     number of electrons       =      1030.00
     number of Kohn-Sham states=          618
     kinetic-energy cutoff     =      60.0000  Ry
     charge density cutoff     =     480.0000  Ry
     scf convergence threshold =      1.0E-08
     mixing beta               =       0.2000
     number of iterations used =           10  local-TF  mixing
     energy convergence thresh.=      7.3E-07
     force convergence thresh. =      3.9E-04
     Exchange-correlation= PBE
                           (   1   4   3   4   0   0   0)
     nstep                     =           50

     Effective Screening Medium Method
     Boundary Conditions: Metal-Slab-Metal
     field strength                   =     0.02 Ry/a.u.
     grid points for fit at edges     =        4

     celldm(1)=  18.764036  celldm(2)=   0.000000  celldm(3)=   0.000000
     celldm(4)=   0.000000  celldm(5)=   0.000000  celldm(6)=   0.000000

     crystal axes: (cart. coord. in units of alat)
               a(1) = (   1.000000   0.000000   0.000000 )
               a(2) = (   0.333330   0.942807   0.000000 )
               a(3) = (   0.000000   0.000000   2.626577 )

     reciprocal axes: (cart. coord. in units 2 pi/alat)
               b(1) = (  1.000000 -0.353551  0.000000 )
               b(2) = (  0.000000  1.060663  0.000000 )
               b(3) = (  0.000000  0.000000  0.380724 )

     PseudoPot. # 1 for Fe read from file:
     ../../SSSP/Fe.pbe-spn-kjpaw_psl.0.2.1.UPF
     MD5 check sum: e86618425769142926afa95317d90200
     Pseudo is Projector augmented-wave + core cor, Zval = 16.0
     Generated using "atomic" code by A. Dal Corso  v.5.0.99 svn rev. 10869
     Shape of augmentation charge: PSQ
     Using radial grid of 1191 points,  6 beta functions with:
                l(1) =   0
                l(2) =   0
                l(3) =   1
                l(4) =   1
                l(5) =   2
                l(6) =   2
     Q(r) pseudized with 0 coefficients

     PseudoPot. # 2 for N  read from file:
     ../../SSSP/N.pbe-n-radius_5.UPF
     MD5 check sum: 16739722b17309cd8fe442a2ace49922
     Pseudo is Ultrasoft + core correction, Zval =  5.0
     Generated using "atomic" code by A. Dal Corso  v.5.1
     Using radial grid of 1085 points,  4 beta functions with:
                l(1) =   0
                l(2) =   0
                l(3) =   1
                l(4) =   1
     Q(r) pseudized with 0 coefficients

     PseudoPot. # 3 for H  read from file:
     ../../SSSP/H.pbe-rrkjus_psl.1.0.0.UPF
     MD5 check sum: f52b6d4d1c606e5624b1dc7b2218f220
     Pseudo is Ultrasoft, Zval =  1.0
     Generated using "atomic" code by A. Dal Corso  v.5.1
     Using radial grid of  929 points,  2 beta functions with:
                l(1) =   0
                l(2) =   0
     Q(r) pseudized with 0 coefficients

     atomic species   valence    mass     pseudopotential
        Fe            16.00    55.84500     Fe( 1.00)
        N              5.00    14.00700     N ( 1.00)
        H              1.00     1.00800     H ( 1.00)

     Starting magnetic structure
     atomic species   magnetization
        Fe           0.100
        N            0.100
        H            0.100

     No symmetry found

   Cartesian axes

     site n.     atom                  positions (alat units)
         1           Fe  tau(   1) = (   0.1666663   0.1178509   0.0000000  )
         2           Fe  tau(   2) = (   0.0000000   0.0000000   0.2041376  )
         3           Fe  tau(   3) = (   0.4999989   0.3535526   0.0000000  )
         4           Fe  tau(   4) = (   0.3333326   0.2357017   0.2041376  )
         5           Fe  tau(   5) = (   0.1686761   0.1178127   0.4053879  )
         6           Fe  tau(   6) = (   0.3341315   0.9417505   0.6038790  )
         7           Fe  tau(   7) = (   0.5010185   0.3547334   0.4069946  )
         8           Fe  tau(   8) = (   0.3389328   0.2353237   0.6057351  )
         9           Fe  tau(   9) = (   0.2499989   0.3535526   0.0000000  )
        10           Fe  tau(  10) = (   0.4166663   0.1178509   0.0000000  )
        11           Fe  tau(  11) = (   0.0833326   0.2357017   0.2041376  )
        12           Fe  tau(  12) = (   0.2500000   0.0000000   0.2041376  )
        13           Fe  tau(  13) = (   0.2500084   0.3535729   0.4069214  )
        14           Fe  tau(  14) = (   0.4190425   0.1195526   0.4061230  )
        15           Fe  tau(  15) = (   0.0867832   0.2339355   0.6042259  )
        16           Fe  tau(  16) = (   0.2513422   0.0009614   0.6055814  )
        17           Fe  tau(  17) = (   0.6666663   0.1178509   0.0000000  )
        18           Fe  tau(  18) = (   0.5000000   0.0000000   0.2041376  )
        19           Fe  tau(  19) = (   0.9999989   0.3535526   0.0000000  )
        20           Fe  tau(  20) = (   0.8333326   0.2357017   0.2041376  )
        21           Fe  tau(  21) = (   0.6681148   0.1184360   0.4069829  )
        22           Fe  tau(  22) = (   0.5015260   0.0054035   0.6057602  )
        23           Fe  tau(  23) = (   0.9990254   0.3524190   0.4069836  )
        24           Fe  tau(  24) = (   0.8421952   0.2232795   0.6023458  )
        25           Fe  tau(  25) = (   0.7499989   0.3535526   0.0000000  )
        26           Fe  tau(  26) = (   0.9166663   0.1178509   0.0000000  )
        27           Fe  tau(  27) = (   0.5833326   0.2357017   0.2041376  )
        28           Fe  tau(  28) = (   0.7500000   0.0000000   0.2041376  )
        29           Fe  tau(  29) = (   0.7500309   0.3535694   0.4028860  )
        30           Fe  tau(  30) = (   0.9184071   0.1154439   0.4036023  )
        31           Fe  tau(  31) = (   0.5922594   0.2420028   0.6095128  )
        32           Fe  tau(  32) = (   1.0839296   0.9390490   0.6042254  )
        33           Fe  tau(  33) = (   0.3333315   0.5892543   0.0000000  )
        34           Fe  tau(  34) = (   0.1666652   0.4714034   0.2041376  )
        35           Fe  tau(  35) = (   0.6666640   0.8249560   0.0000000  )
        36           Fe  tau(  36) = (   0.4999978   0.7071052   0.2041376  )
        37           Fe  tau(  37) = (   0.3313617   0.5893276   0.4053908  )
        38           Fe  tau(  38) = (   1.1611812   0.4718200   0.6057582  )
        39           Fe  tau(  39) = (   0.6673001   0.8268787   0.4053878  )
        40           Fe  tau(  40) = (   0.4992589   0.7082242   0.6038060  )
        41           Fe  tau(  41) = (   0.4166640   0.8249560   0.0000000  )
        42           Fe  tau(  42) = (   0.5833315   0.5892543   0.0000000  )
        43           Fe  tau(  43) = (   1.2499978   0.7071052   0.2041376  )
        44           Fe  tau(  44) = (   0.4166652   0.4714034   0.2041376  )
        45           Fe  tau(  45) = (   0.4166750   0.8249924   0.4051227  )
        46           Fe  tau(  46) = (   0.5816440   0.5916935   0.4035888  )
        47           Fe  tau(  47) = (   1.2487180   0.7062162   0.6055774  )
        48           Fe  tau(  48) = (   0.4133036   0.4732283   0.6042394  )
        49           Fe  tau(  49) = (   0.8333315   0.5892543   0.0000000  )
        50           Fe  tau(  50) = (   0.6666652   0.4714034   0.2041376  )
        51           Fe  tau(  51) = (   1.1666640   0.8249560   0.0000000  )
        52           Fe  tau(  52) = (   0.9999978   0.7071052   0.2041376  )
        53           Fe  tau(  53) = (   0.8319388   0.5887338   0.4069947  )
        54           Fe  tau(  54) = (   0.6578912   0.4839290   0.6023306  )
        55           Fe  tau(  55) = (   1.1660796   0.8230901   0.4053873  )
        56           Fe  tau(  56) = (   0.9985750   0.7017844   0.6057248  )
        57           Fe  tau(  57) = (   0.9166640   0.8249560   0.0000000  )
        58           Fe  tau(  58) = (   1.0833315   0.5892543   0.0000000  )
        59           Fe  tau(  59) = (   0.7499978   0.7071052   0.2041376  )
        60           Fe  tau(  60) = (   0.9166652   0.4714034   0.2041376  )
        61           Fe  tau(  61) = (   0.9166941   0.8250019   0.4069198  )
        62           Fe  tau(  62) = (   1.0809968   0.5876199   0.4061253  )
        63           Fe  tau(  63) = (   0.7494825   0.7109756   0.6042358  )
        64           Fe  tau(  64) = (   0.9078936   0.4651830   0.6094990  )
        65           N   tau(  65) = (   0.7501544   0.3536979   0.7049393  )
        66           H   tau(  66) = (   0.7501627   0.3537519   0.8083875  )

     number of k points=    10  Methfessel-Paxton smearing, width (Ry)=  0.0100
                       cart. coord. in units 2pi/alat
        k(    1) = (   0.0000000   0.0000000   0.0000000), wk =   0.0625000
        k(    2) = (   0.0000000   0.2651656   0.0000000), wk =   0.1250000
        k(    3) = (   0.0000000  -0.5303313   0.0000000), wk =   0.0625000
        k(    4) = (   0.2500000  -0.0883878   0.0000000), wk =   0.1250000
        k(    5) = (   0.2500000   0.1767779   0.0000000), wk =   0.1250000
        k(    6) = (   0.2500000  -0.6187190   0.0000000), wk =   0.1250000
        k(    7) = (   0.2500000  -0.3535534   0.0000000), wk =   0.1250000
        k(    8) = (  -0.5000000   0.1767755   0.0000000), wk =   0.0625000
        k(    9) = (  -0.5000000   0.4419412   0.0000000), wk =   0.1250000
        k(   10) = (  -0.5000000  -0.3535558   0.0000000), wk =   0.0625000

     Check: negative core charge=   -0.000039
     Generating pointlists ...
     new r_m :   0.0783 (alat units)  1.4686 (a.u.) for type    1
     new r_m :   0.0427 (alat units)  0.8007 (a.u.) for type    2
     new r_m :   0.0427 (alat units)  0.8007 (a.u.) for type    3

     Initial potential from superposition of free atoms

     starting charge 1029.97193, renormalised to 1030.00000

     negative rho (up, down):  1.347E-02 1.102E-02
     Starting wfcs are  837 randomized atomic wfcs
     Checking if some PAW data can be deallocated...

     Self-consistent Calculation

[...]
   -85.7399 -85.7398 -85.7397 -85.7358 -85.7339 -85.7287 -85.7278 -85.7230
   -85.7228 -85.7197 -85.7184 -85.7184 -85.7181 -85.7170 -85.7167 -85.7160
   -85.7153 -85.7119 -85.7067 -85.7014 -85.6960 -85.6954 -85.6952 -85.6949
   -52.7232 -52.7080 -52.3818 -52.3769 -52.2333 -52.2171 -52.1740 -52.1713
   -52.1057 -52.1032 -52.1014 -52.1009 -52.0953 -52.0950 -52.0936 -52.0864
   -52.0862 -52.0831 -52.0821 -52.0778 -52.0773 -52.0762 -52.0736 -52.0732
   -52.0724 -52.0668 -52.0637 -52.0626 -52.0589 -52.0537 -52.0504 -52.0500
   -52.0488 -52.0404 -52.0378 -52.0360 -52.0359 -52.0334 -52.0310 -52.0290
   -52.0223 -52.0145 -52.0138 -52.0121 -52.0054 -52.0050 -52.0004 -51.9992
   -51.9989 -51.9985 -51.9948 -51.9946 -51.9925 -51.9924 -51.9917 -51.9898
   -51.9865 -51.9862 -51.9860 -51.9853 -51.9826 -51.9815 -51.9814 -51.9767
   -51.9712 -51.9668 -51.9660 -51.9632 -51.9552 -51.9538 -51.9534 -51.9492
   -51.9407 -51.9356 -51.9328 -51.9249 -51.9198 -51.9165 -51.9157 -51.9156
   -51.9135 -51.9064 -51.9062 -51.9026 -51.8968 -51.8910 -51.8896 -51.8862
   -51.8860 -51.8841 -51.8821 -51.8809 -51.8772 -51.8755 -51.8743 -51.8724
   -51.8719 -51.8700 -51.8685 -51.8670 -51.8552 -51.8546 -51.8499 -51.8485
   -51.8471 -51.8449 -51.8425 -51.8411 -51.8410 -51.8405 -51.8383 -51.8374
   -51.8361 -51.8358 -51.8305 -51.8298 -51.8286 -51.8283 -51.8271 -51.8230
   -51.8228 -51.8119 -51.8117 -51.8098 -51.8095 -51.8052 -51.8040 -51.8035
   -51.8003 -51.7997 -51.7981 -51.7975 -51.7913 -51.7882 -51.7859 -51.7855
   -51.7827 -51.7814 -51.7811 -51.7799 -51.7795 -51.7793 -51.7761 -51.7748
   -51.7744 -51.7729 -51.7707 -51.7704 -51.7690 -51.7690 -51.7685 -51.7652
   -51.7623 -51.7611 -51.7597 -51.7578 -51.7561 -51.7557 -51.7557 -51.7535
   -51.7530 -51.7523 -51.7510 -51.7502 -51.7501 -51.7491 -51.7486 -51.7484
   -51.7482 -51.7467 -51.7454 -51.7446 -51.7408 -51.7402 -51.7394 -51.7378
   -51.7373 -51.7342 -51.7341 -51.7340 -51.7337 -51.7276 -51.7267 -51.7256
   -51.7249 -51.7230 -51.7220 -51.7202 -51.7191 -51.7185 -51.7145 -51.7140
   -17.0456  -8.5616  -7.7900  -7.7084  -7.2324  -7.1532  -6.5490  -6.3869
    -6.1303  -5.8445  -5.7445  -5.5910  -5.2024  -5.1855  -5.1403  -5.0945
    -4.7397  -4.7131  -4.3704  -4.3650  -4.3489  -4.3349  -4.3132  -4.2753
    -4.2514  -4.2353  -4.2170  -4.1779  -4.1684  -4.1184  -3.8152  -3.7931
    -3.7861  -3.7825  -3.7501  -3.7409  -3.5928  -3.5517  -3.3338  -3.3172
    -3.3103  -3.2850  -3.2748  -3.2554  -3.2462  -3.2239  -3.1864  -3.1699
    -3.1563  -3.0758  -3.0389  -3.0327  -3.0156  -3.0108  -2.9869  -2.9222
    -2.7701  -2.7633  -2.7472  -2.7306  -2.7190  -2.7148  -2.5143  -2.4921
    -2.4808  -2.4538  -2.4445  -2.4209  -2.3342  -2.3066  -2.2916  -2.2639
    -2.2571  -2.2286  -2.2184  -2.2144  -2.2127  -2.2045  -2.1888  -2.1854
    -2.1590  -2.1490  -2.1154  -2.1081  -2.0982  -2.0977  -2.0890  -2.0869
    -2.0820  -2.0667  -2.0455  -1.9752  -1.9619  -1.8827  -1.8744  -1.8664
    -1.8039  -1.7618  -1.7493  -1.7425  -1.7391  -1.7317  -1.7275  -1.7103
    -1.7031  -1.6942  -1.6878  -1.6628  -1.6606  -1.6601  -1.6591  -1.6530
    -1.6374  -1.6367  -1.6204  -1.6161  -1.6135  -1.5989  -1.5976  -1.5946
    -1.5939  -1.5871  -1.5836  -1.5823  -1.5692  -1.5661  -1.5550  -1.5380
    -1.5203  -1.5138  -1.5122  -1.5073  -1.4977  -1.4905  -1.4784  -1.4778
    -1.4736  -1.4480  -1.4434  -1.4418  -1.3889  -1.3767  -1.2924  -1.2753
    -1.2442  -1.2338  -1.2189  -1.2184  -1.2095  -1.2025  -1.1939  -1.1798
    -1.1645  -1.1305  -1.1015  -1.0897  -1.0606  -1.0407  -1.0300  -1.0108
    -1.0072  -1.0012  -0.9896  -0.9674  -0.9594  -0.9572  -0.9449  -0.8739
    -0.8270  -0.8022  -0.7873  -0.7757  -0.7509  -0.7286  -0.7149  -0.7084
    -0.7057  -0.6919  -0.6856  -0.6477  -0.6260  -0.6005  -0.5922  -0.5881
    -0.5868  -0.5724  -0.5708  -0.5604  -0.5495  -0.3219  -0.3084  -0.2935
    -0.2482  -0.2013  -0.1994  -0.1741  -0.0167   0.0225   0.0764   0.0820
     0.0997   0.1436   0.1447   0.1652   0.1760   0.1995   0.2022   0.2452
     0.2456   0.2547   0.2570   0.2926   0.3346   0.3359   0.3610   0.3671
     0.3788   0.4035   0.4064   0.4369   0.4464   0.4543   0.4841   0.5380
[...]
     0.8829   0.8862   0.9242   0.9269   0.9610   0.9708   0.9920   0.9971
     1.0008   1.0018   1.0045   1.0196   1.0309   1.0396   1.0532   1.0631
     1.0676   1.0717   1.0717   1.0719   1.0753   1.0903   1.0910   1.1164
     1.1196   1.1255   1.1307   1.1412   1.1502   1.1550   1.1668   1.1707
     1.1742   1.1750   1.1813   1.1816   1.1830   1.2057   1.2121   1.2163
     1.2293   1.2421   1.2424   1.2459   1.2494   1.2534   1.2579   1.2590
     1.2678   1.2785   1.2895   1.2942   1.3329   1.3612   1.3643   1.3652
     1.3767   1.3840   1.3854   1.3927   1.3974   1.4134   1.4219   1.4351
     1.4355   1.4392   1.4452   1.4459   1.4524   1.4582   1.4630   1.4685
     1.4693   1.4736   1.4755   1.4775   1.4796   1.5000   1.5105   1.5119
     1.5226   1.5277   1.5326   1.5355   1.5406   1.5513   1.5545   1.5698
     1.5725   1.5956   1.6183   1.6307   1.6361   1.6458   1.6491   1.6644
     1.7519   1.7530   1.8533   1.8591   1.9944   2.0029   2.0600   2.0721
     2.0736   2.0789   2.1207   2.1252   2.1346   2.1412   2.1449   2.1668
     2.1675   2.1730

     the Fermi energy is    -0.6830 ev

!    total energy              =  -21093.80094539 Ry
     estimated scf accuracy    <          4.7E-11 Ry
     smearing contrib. (-TS)   =       0.00195614 Ry
     internal energy E=F+TS    =  -21093.80290153 Ry

     The total energy is F=E-TS. E is the sum of the following terms:
     one-electron contribution = -742939.83885682 Ry
     hartree contribution      =  371439.37151367 Ry
     xc contribution           =   -2234.25629686 Ry
     ewald contribution        =  357515.75215489 Ry
     Dispersion Correction     =      -1.39168952 Ry
     one-center paw contrib.   =   -4873.43972690 Ry

     total magnetization       =   161.26 Bohr mag/cell
     absolute magnetization    =   168.00 Bohr mag/cell

     convergence has been achieved in  12 iterations

     negative rho (up, down):  1.138E-02 1.525E-02

     Forces acting on atoms (cartesian axes, Ry/au):

     atom    1 type  1   force =     0.00042698   -0.00020734    0.00873717
     atom    2 type  1   force =     0.00183406   -0.00258510   -0.01260353
     atom    3 type  1   force =    -0.00043751   -0.00039177    0.00841909
     atom    4 type  1   force =     0.00046119    0.00056966   -0.00770282
     atom    5 type  1   force =    -0.00000256    0.00000992   -0.00003763
     atom    6 type  1   force =     0.00000809   -0.00001578   -0.00002023
     atom    7 type  1   force =     0.00003172   -0.00000365   -0.00002705
     atom    8 type  1   force =    -0.00000967   -0.00001220    0.00002804
     atom    9 type  1   force =     0.00000044    0.00001447    0.00902429
     atom   10 type  1   force =    -0.00021156   -0.00014867    0.00878440
     atom   11 type  1   force =    -0.00027158    0.00113600   -0.00665822
     atom   12 type  1   force =     0.00087924    0.00069637   -0.01097156
     atom   13 type  1   force =    -0.00000388    0.00000252   -0.00001290
     atom   14 type  1   force =     0.00003403    0.00002084   -0.00003855
     atom   15 type  1   force =    -0.00009037   -0.00002252    0.00002263
     atom   16 type  1   force =    -0.00002625   -0.00002372    0.00000036
     atom   17 type  1   force =    -0.00049225   -0.00024974    0.00835243
     atom   18 type  1   force =     0.00071023    0.00028992   -0.00773478
     atom   19 type  1   force =     0.00041175    0.00037737    0.00834808
     atom   20 type  1   force =     0.00080404   -0.00110266   -0.01117954
     atom   21 type  1   force =     0.00000745    0.00002862   -0.00001822
     atom   22 type  1   force =    -0.00001620   -0.00001056    0.00004980
     atom   23 type  1   force =    -0.00003476   -0.00000042   -0.00001755
     atom   24 type  1   force =     0.00003384   -0.00005690    0.00002918
     atom   25 type  1   force =     0.00000696    0.00000891    0.00746664
     atom   26 type  1   force =    -0.00072890    0.00101526    0.00930613
     atom   27 type  1   force =    -0.00006838   -0.00010614   -0.00614351
     atom   28 type  1   force =    -0.00096089    0.00066734   -0.00665574
     atom   29 type  1   force =     0.00000200   -0.00000777   -0.00001285
     atom   30 type  1   force =    -0.00000166   -0.00000276   -0.00004552
     atom   31 type  1   force =     0.00004211    0.00003416    0.00005027
     atom   32 type  1   force =     0.00004408    0.00007342    0.00002305
     atom   33 type  1   force =    -0.00042775    0.00016561    0.00878126
     atom   34 type  1   force =    -0.00048777   -0.00057060   -0.00773590
     atom   35 type  1   force =    -0.00002823    0.00044886    0.00879285
     atom   36 type  1   force =    -0.00192420    0.00271392   -0.01259653
     atom   37 type  1   force =    -0.00000672   -0.00001125   -0.00003392
     atom   38 type  1   force =     0.00000762    0.00001001    0.00005013
     atom   39 type  1   force =     0.00001124   -0.00000272   -0.00003443
     atom   40 type  1   force =    -0.00000680    0.00000402   -0.00002027
     atom   41 type  1   force =     0.00001948   -0.00002397    0.00783879
     atom   42 type  1   force =     0.00073848   -0.00101896    0.00935186
     atom   43 type  1   force =    -0.00094500   -0.00058158   -0.01097197
     atom   44 type  1   force =     0.00027942   -0.00112992   -0.00663061
     atom   45 type  1   force =     0.00000162   -0.00000750   -0.00005432
     atom   46 type  1   force =    -0.00000494   -0.00000160   -0.00004136
     atom   47 type  1   force =     0.00002560    0.00001669    0.00000635
     atom   48 type  1   force =     0.00009257    0.00000898    0.00001542
     atom   49 type  1   force =     0.00051648    0.00026725    0.00843094
     atom   50 type  1   force =    -0.00070335    0.00101114   -0.01123781
     atom   51 type  1   force =     0.00006351   -0.00047392    0.00874227
     atom   52 type  1   force =    -0.00068551   -0.00021675   -0.00770722
     atom   53 type  1   force =    -0.00001382   -0.00003453   -0.00002797
     atom   54 type  1   force =    -0.00003385    0.00004010    0.00002336
     atom   55 type  1   force =    -0.00001209    0.00000192   -0.00003692
     atom   56 type  1   force =     0.00000994   -0.00000085    0.00003265
     atom   57 type  1   force =    -0.00003198   -0.00000455    0.00903193
     atom   58 type  1   force =     0.00020097    0.00015940    0.00877689
     atom   59 type  1   force =     0.00098466   -0.00061945   -0.00663128
     atom   60 type  1   force =     0.00013967    0.00005173   -0.00615044
     atom   61 type  1   force =    -0.00000556    0.00000055   -0.00001207
     atom   62 type  1   force =    -0.00003707   -0.00002808   -0.00003820
     atom   63 type  1   force =    -0.00004305   -0.00009272    0.00001369
     atom   64 type  1   force =    -0.00005529   -0.00003677    0.00005042
     atom   65 type  2   force =    -0.00001144   -0.00001612    0.00002633
     atom   66 type  3   force =    -0.00000862   -0.00002545    0.00016138

     Total force =     0.000351     Total SCF correction =     0.000042
     SCF correction compared to forces is large: reduce conv_thr to get better values
     Energy error            =      2.8E-07
     Gradient error          =      1.6E-04

     bfgs converged in  11 scf cycles and  10 bfgs steps
     (criteria: energy <  7.3E-07 Ry, force <  3.9E-04 Ry/Bohr)

     End of BFGS Geometry Optimization

     Final energy   =  -21093.8009453870 Ry

     File ./Fe_NH_paper_480c_ESM_p5.bfgs deleted, as requested
Begin final coordinates

ATOMIC_POSITIONS (angstrom)
Fe            1.6549129530        1.1702001330        0.0000000000    0   0   0
Fe            0.0000000000        0.0000000000        2.0269842320    0   0   0
Fe            4.9647388580        3.5106003990        0.0000000000    0   0   0
Fe            3.3098259060        2.3404002660        2.0269842320    0   0   0
Fe            1.6752313675        1.1693932593        4.0289342541
Fe            3.3180258836        9.3505956329        6.0037455668
Fe            4.9743174284        3.5223509881        4.0438866736
Fe            3.3665565781        2.3366806491        6.0230680389
Fe            2.4823638580        3.5106003990        0.0000000000    0   0   0
Fe            4.1372879530        1.1702001330        0.0000000000    0   0   0
Fe            0.8274509060        2.3404002660        2.0269842320    0   0   0
Fe            2.4823750000        0.0000000000        2.0269842320    0   0   0
Fe            2.4825220168        3.5106364001        4.0446245838
Fe            4.1608607669        1.1868609756        4.0358133868
Fe            0.8633531188        2.3223016847        6.0073416654
Fe            2.4963183359        0.0098120128        6.0214107202
Fe            6.6196629530        1.1702001330        0.0000000000    0   0   0
Fe            4.9647500000        0.0000000000        2.0269842320    0   0   0
Fe            9.9294888580        3.5106003990        0.0000000000    0   0   0
Fe            8.2745759060        2.3404002660        2.0269842320    0   0   0
Fe            6.6341596613        1.1751884066        4.0437748389
Fe            4.9805023462        0.0542838903        6.0231465337
Fe            9.9204466823        3.4988787377        4.0437642154
Fe            8.3634773710        2.2155236205        5.9850188409
Fe            7.4471138580        3.5106003990        0.0000000000    0   0   0
Fe            9.1020379530        1.1702001330        0.0000000000    0   0   0
Fe            5.7922009060        2.3404002660        2.0269842320    0   0   0
Fe            7.4471250000        0.0000000000        2.0269842320    0   0   0
Fe            7.4474469058        3.5106304912        4.0020354358
Fe            9.1197654295        1.1455873309        4.0103314488
Fe            5.8800495132        2.4019913319        6.0567828495
Fe           10.7626979643        9.3223548731        6.0072871596
Fe            3.3098147640        5.8510006640        0.0000000000    0   0   0
Fe            1.6549018110        4.6808005310        2.0269842320    0   0   0
Fe            6.6196406700        8.1914009300        0.0000000000    0   0   0
Fe            4.9647277170        7.0212007970        2.0269842320    0   0   0
Fe            3.2900463130        5.8519311012        4.0289018952
Fe           11.5288778875        4.6844619146        6.0231427045
Fe            6.6257371679        8.2106793186        4.0288727190
Fe            4.9571290380        7.0324987573        6.0030813388
Fe            4.1372656700        8.1914009300        0.0000000000    0   0   0
Fe            5.7921897640        5.8510006640        0.0000000000    0   0   0
Fe           12.4118527170        7.0212007970        2.0269842320    0   0   0
Fe            4.1372768110        4.6808005310        2.0269842320    0   0   0
Fe            4.1373848748        8.1916475064        4.0262855929
Fe            5.7751323043        5.8755671539        4.0102584491
Fe           12.3985102563        7.0117839689        6.0213423145
Fe            4.1023667128        4.6990375061        6.0071874507
Fe            8.2745647640        5.8510006640        0.0000000000    0   0   0
Fe            6.6196518110        4.6808005310        2.0269842320    0   0   0
Fe           11.5843906700        8.1914009300        0.0000000000    0   0   0
Fe            9.9294777170        7.0212007970        2.0269842320    0   0   0
Fe            8.2607867259        5.8462608898        4.0438866042
Fe            6.5317257800        4.8060709493        5.9849954865
Fe           11.5787551802        8.1723060664        4.0289048021
Fe            9.9147207381        6.9671188973        6.0229290276
Fe            9.1020156700        8.1914009300        0.0000000000    0   0   0
Fe           10.7569397640        5.8510006640        0.0000000000    0   0   0
Fe            7.4471027170        7.0212007970        2.0269842320    0   0   0
Fe            9.1020268110        4.6808005310        2.0269842320    0   0   0
Fe            9.1023139475        8.1916482140        4.0446032632
Fe           10.7338753989        5.8346140048        4.0358166873
Fe            7.4421645234        7.0609098092        6.0071591305
Fe            9.0157952671        4.6191809571        6.0566655164
N             7.4484011486        3.5114315208        7.0044509226
H             7.4484813438        3.5117938355        8.0308403234
End final coordinates

     Writing output data file ./Fe_NH_paper_480c_ESM_p5.save/

     General routines

     Parallel routines

   This run was terminated on:   3: 6:39  17Jun2022

   JOB DONE.