     Program PWSCF v.6.4.1 starts on 18Jun2022 at 16:34: 7

     K-points division:     npool     =       8
     R & G space division:  proc/nbgrp/npool/nimage =      20
     Waiting for input...
     Reading input from standard input
Warning: card &CELL ignored
Warning: card / ignored

     Current dimensions of program PWSCF are:
     Max number of different atomic species (ntypx) = 10
     Max number of k-points (npk) =  40000
     Max angular momentum in pseudopotentials (lmaxx) =  3

     Atomic positions and unit cell read from directory:
     ./Fe_NH3_paper_480c_ESM_pn5.save/

     Message from routine readpp:
     file ./Fe_NH3_paper_480c_ESM_pn5.save/Fe.pbe-spn-kjpaw_psl.0.2.1.UPF not found
     Message from routine readpp:
     file ./Fe_NH3_paper_480c_ESM_pn5.save/N.pbe-n-radius_5.UPF not found
     Message from routine readpp:
     file ./Fe_NH3_paper_480c_ESM_pn5.save/H.pbe-rrkjus_psl.1.0.0.UPF not found

     IMPORTANT: XC functional enforced from input :
     Exchange-correlation      = PBE ( 1  4  3  4 0 0)
     Any further DFT definition will be discarded
     Please, verify this is what you really want

               file Fe.pbe-spn-kjpaw_psl.0.2.1.UPF: wavefunction(s)  3D renormalized

     Parameters for Dispersion (Grimme-D2) Correction:
       atom      VdW radius       C_6

        Fe         2.952        374.666
        N          2.640         42.670
        H          1.892          4.857

     bravais-lattice index     =            0
     lattice parameter (alat)  =      18.7640  a.u.
     unit-cell volume          =   16360.3163 (a.u.)^3
     number of atoms/cell      =           68
     number of atomic types    =            3
     number of electrons       =      1032.00
     number of Kohn-Sham states=          619
     kinetic-energy cutoff     =      60.0000  Ry
     charge density cutoff     =     480.0000  Ry
     convergence threshold     =      1.0E-08
     mixing beta               =       0.2000
     number of iterations used =           10  local-TF  mixing
     Exchange-correlation      = PBE ( 1  4  3  4 0 0)
     nstep                     =           50

     Effective Screening Medium Method
     Boundary Conditions: Metal-Slab-Metal
     field strength                   =    -0.02 Ry/a.u.
     grid points for fit at edges     =        4

     celldm(1)=  18.764036  celldm(2)=   0.000000  celldm(3)=   0.000000
     celldm(4)=   0.000000  celldm(5)=   0.000000  celldm(6)=   0.000000

     crystal axes: (cart. coord. in units of alat)
               a(1) = (   1.000000   0.000000   0.000000 )
               a(2) = (   0.333330   0.942807   0.000000 )
               a(3) = (   0.000000   0.000000   2.626577 )

     reciprocal axes: (cart. coord. in units 2 pi/alat)
               b(1) = (  1.000000 -0.353551  0.000000 )
               b(2) = (  0.000000  1.060663  0.000000 )
               b(3) = (  0.000000  0.000000  0.380724 )

     PseudoPot. # 1 for Fe read from file:
     ../../SSSP/Fe.pbe-spn-kjpaw_psl.0.2.1.UPF
     MD5 check sum: e86618425769142926afa95317d90200
     Pseudo is Projector augmented-wave + core cor, Zval = 16.0
     Generated using "atomic" code by A. Dal Corso v.5.0.99 svn rev. 10869
     Shape of augmentation charge: PSQ
     Using radial grid of 1191 points,  6 beta functions with:
                l(1) =   0
                l(2) =   0
                l(3) =   1
                l(4) =   1
                l(5) =   2
                l(6) =   2
     Q(r) pseudized with 0 coefficients

     PseudoPot. # 2 for N  read from file:
     ../../SSSP/N.pbe-n-radius_5.UPF
     MD5 check sum: 16739722b17309cd8fe442a2ace49922
     Pseudo is Ultrasoft + core correction, Zval =  5.0
     Generated using "atomic" code by A. Dal Corso v.5.1
     Using radial grid of 1085 points,  4 beta functions with:
                l(1) =   0
                l(2) =   0
                l(3) =   1
                l(4) =   1
     Q(r) pseudized with 0 coefficients

     PseudoPot. # 3 for H  read from file:
     ../../SSSP/H.pbe-rrkjus_psl.1.0.0.UPF
     MD5 check sum: f52b6d4d1c606e5624b1dc7b2218f220
     Pseudo is Ultrasoft, Zval =  1.0
     Generated using "atomic" code by A. Dal Corso v.5.1
     Using radial grid of  929 points,  2 beta functions with:
                l(1) =   0
                l(2) =   0
     Q(r) pseudized with 0 coefficients

     atomic species   valence    mass     pseudopotential
        Fe            16.00    55.84500     Fe( 1.00)
        N              5.00    14.00700     N ( 1.00)
        H              1.00     1.00800     H ( 1.00)

     Starting magnetic structure
     atomic species   magnetization
        Fe           0.100
        N            0.100
        H            0.100

     No symmetry found

   Cartesian axes

     site n.     atom                  positions (alat units)
         1           Fe  tau(   1) = (   0.1666663   0.1178509   0.0000000  )
         2           Fe  tau(   2) = (   0.0000000   0.0000000   0.2041376  )
         3           Fe  tau(   3) = (   0.4999989   0.3535526   0.0000000  )
         4           Fe  tau(   4) = (   0.3333326   0.2357017   0.2041376  )
         5           Fe  tau(   5) = (   0.1666571   0.1178378   0.4061216  )
         6           Fe  tau(   6) = (   0.3333606   0.9428289   0.6057378  )
         7           Fe  tau(   7) = (   0.5007161   0.3540505   0.4059888  )
         8           Fe  tau(   8) = (   0.3329746   0.2354565   0.6041371  )
         9           Fe  tau(   9) = (   0.2499989   0.3535526   0.0000000  )
        10           Fe  tau(  10) = (   0.4166663   0.1178509   0.0000000  )
        11           Fe  tau(  11) = (   0.0833326   0.2357017   0.2041376  )
        12           Fe  tau(  12) = (   0.2500000   0.0000000   0.2041376  )
        13           Fe  tau(  13) = (   0.2499537   0.3538097   0.4060487  )
        14           Fe  tau(  14) = (   0.4168967   0.1177258   0.4060632  )
        15           Fe  tau(  15) = (   0.0827052   0.2363415   0.6060536  )
        16           Fe  tau(  16) = (   0.2504004  -0.0008104   0.6060781  )
        17           Fe  tau(  17) = (   0.6666663   0.1178509   0.0000000  )
        18           Fe  tau(  18) = (   0.5000000   0.0000000   0.2041376  )
        19           Fe  tau(  19) = (   0.9999989   0.3535526   0.0000000  )
        20           Fe  tau(  20) = (   0.8333326   0.2357017   0.2041376  )
        21           Fe  tau(  21) = (   0.6669245   0.1178085   0.4050408  )
        22           Fe  tau(  22) = (   0.4999523  -0.0001380   0.6077497  )
        23           Fe  tau(  23) = (   0.9998862   0.3532917   0.4050042  )
        24           Fe  tau(  24) = (   0.8332913   0.2357200   0.6007180  )
        25           Fe  tau(  25) = (   0.7499989   0.3535526   0.0000000  )
        26           Fe  tau(  26) = (   0.9166663   0.1178509   0.0000000  )
        27           Fe  tau(  27) = (   0.5833326   0.2357017   0.2041376  )
        28           Fe  tau(  28) = (   0.7500000   0.0000000   0.2041376  )
        29           Fe  tau(  29) = (   0.7482383   0.3559624   0.4089388  )
        30           Fe  tau(  30) = (   0.9168537   0.1175678   0.4050663  )
        31           Fe  tau(  31) = (   0.5834797   0.2351747   0.6028043  )
        32           Fe  tau(  32) = (   1.0829156   0.9435142   0.6061476  )
        33           Fe  tau(  33) = (   0.3333315   0.5892543   0.0000000  )
        34           Fe  tau(  34) = (   0.1666652   0.4714034   0.2041376  )
        35           Fe  tau(  35) = (   0.6666640   0.8249560   0.0000000  )
        36           Fe  tau(  36) = (   0.4999978   0.7071052   0.2041376  )
        37           Fe  tau(  37) = (   0.3333717   0.5895315   0.4050284  )
        38           Fe  tau(  38) = (   1.1665492   0.4713740   0.6077506  )
        39           Fe  tau(  39) = (   0.6663707   0.8249518   0.4049945  )
        40           Fe  tau(  40) = (   0.5000306   0.7070312   0.6008226  )
        41           Fe  tau(  41) = (   0.4166640   0.8249560   0.0000000  )
        42           Fe  tau(  42) = (   0.5833315   0.5892543   0.0000000  )
        43           Fe  tau(  43) = (   0.2499978   0.7071052   0.2041376  )
        44           Fe  tau(  44) = (   0.4166652   0.4714034   0.2041376  )
        45           Fe  tau(  45) = (   0.4164654   0.8252256   0.4050846  )
        46           Fe  tau(  46) = (   0.5850125   0.5868025   0.4089337  )
        47           Fe  tau(  47) = (   1.2505417   0.7064676   0.6061669  )
        48           Fe  tau(  48) = (   0.4162106   0.4717172   0.6027054  )
        49           Fe  tau(  49) = (   0.8333315   0.5892543   0.0000000  )
        50           Fe  tau(  50) = (   0.6666652   0.4714034   0.2041376  )
        51           Fe  tau(  51) = (   1.1666640   0.8249560   0.0000000  )
        52           Fe  tau(  52) = (   0.9999978   0.7071052   0.2041376  )
        53           Fe  tau(  53) = (   0.8325873   0.5887153   0.4060110  )
        54           Fe  tau(  54) = (   0.6665490   0.4713889   0.6399067  )
        55           Fe  tau(  55) = (   1.1666640   0.8249463   0.4061612  )
        56           Fe  tau(  56) = (   1.0002900   0.7073156   0.6041991  )
        57           Fe  tau(  57) = (   0.9166640   0.8249560   0.0000000  )
        58           Fe  tau(  58) = (   1.0833315   0.5892543   0.0000000  )
        59           Fe  tau(  59) = (   0.7499978   0.7071052   0.2041376  )
        60           Fe  tau(  60) = (   0.9166652   0.4714034   0.2041376  )
        61           Fe  tau(  61) = (   0.9164193   0.8250168   0.4060605  )
        62           Fe  tau(  62) = (   1.0833042   0.5889965   0.4060744  )
        63           Fe  tau(  63) = (   0.7497773   0.7074625   0.6027476  )
        64           Fe  tau(  64) = (   0.9169266   0.4710606   0.6028479  )
        65           N   tau(  65) = (   0.6669596   0.4713724   0.8488969  )
        66           H   tau(  66) = (   0.6649158   0.5660129   0.8905191  )
        67           H   tau(  67) = (   0.5857736   0.4224140   0.8900956  )
        68           H   tau(  68) = (   0.7497150   0.4253991   0.8903144  )

     number of k points=    10  Methfessel-Paxton smearing, width (Ry)=  0.0100
                       cart. coord. in units 2pi/alat
        k(    1) = (   0.0000000   0.0000000   0.0000000), wk =   0.0625000
        k(    2) = (   0.0000000   0.2651656   0.0000000), wk =   0.1250000
        k(    3) = (   0.0000000  -0.5303313   0.0000000), wk =   0.0625000
        k(    4) = (   0.2500000  -0.0883878   0.0000000), wk =   0.1250000
        k(    5) = (   0.2500000   0.1767779   0.0000000), wk =   0.1250000
        k(    6) = (   0.2500000  -0.6187190   0.0000000), wk =   0.1250000
        k(    7) = (   0.2500000  -0.3535534   0.0000000), wk =   0.1250000
        k(    8) = (  -0.5000000   0.1767755   0.0000000), wk =   0.0625000
        k(    9) = (  -0.5000000   0.4419412   0.0000000), wk =   0.1250000
        k(   10) = (  -0.5000000  -0.3535558   0.0000000), wk =   0.0625000

     Check: negative core charge=   -0.000039

     The initial density is read from file :
     ./Fe_NH3_paper_480c_ESM_pn5.save/charge-density

[...]
     atom:   63    charge:   13.4578    magn:    2.5503    constr:    0.0000
     atom:   64    charge:   13.4576    magn:    2.5515    constr:    0.0000
     atom:   65    charge:    1.3626    magn:   -0.0007    constr:    0.0000
     atom:   66    charge:    0.4353    magn:    0.0020    constr:    0.0000
     atom:   67    charge:    0.4348    magn:    0.0025    constr:    0.0000
     atom:   68    charge:    0.4355    magn:    0.0020    constr:    0.0000

     End of self-consistent calculation

 ------ SPIN UP ------------

[...]

 ------ SPIN DOWN ----------

[...]

          k = 0.2500-0.3536 0.0000 (128397 PWs)   bands (ev):

[...]

          k =-0.5000-0.3536 0.0000 (128560 PWs)   bands (ev):

   -97.2153 -97.0660 -97.0573 -97.0556 -97.0546 -97.0324 -97.0293 -97.0277
   -97.0270 -97.0262 -97.0235 -97.0207 -97.0191 -97.0168 -97.0161 -97.0124
   -97.0099 -97.0065 -97.0060 -97.0031 -97.0023 -97.0023 -97.0000 -96.9982
   -96.9976 -96.9969 -96.9955 -96.9950 -96.9919 -96.9777 -96.9742 -96.9740
   -96.9739 -96.9650 -96.9639 -96.9634 -96.9615 -96.9591 -96.9587 -96.9579
   -96.9576 -96.9553 -96.9449 -96.9434 -96.9426 -96.9384 -96.9372 -96.9371
   -96.9370 -96.9366 -96.9365 -96.9349 -96.9349 -96.9339 -96.9321 -96.9259
   -96.9236 -96.9155 -96.9149 -96.9136 -96.9134 -96.9127 -96.9118 -96.9090
   -63.4551 -63.3592 -63.3220 -63.3181 -63.3121 -63.3071 -63.3046 -63.3038
   -63.3036 -63.2981 -63.2960 -63.2958 -63.2950 -63.2944 -63.2942 -63.2919
   -63.2914 -63.2879 -63.2858 -63.2848 -63.2816 -63.2786 -63.2741 -63.2739
   -63.2686 -63.2637 -63.2573 -63.2566 -63.2549 -63.2549 -63.2534 -63.2497
   -63.2492 -63.2347 -63.2330 -63.2280 -63.2279 -63.2220 -63.2207 -63.2203
   -63.2184 -63.2173 -63.2170 -63.2170 -63.2157 -63.2123 -63.2120 -63.2105
   -63.2100 -63.2090 -63.2077 -63.2068 -63.2060 -63.2051 -63.1991 -63.1986
   -63.1983 -63.1975 -63.1962 -63.1959 -63.1958 -63.1948 -63.1926 -63.1677
   -63.1607 -63.1601 -63.1564 -63.1516 -63.1479 -63.1467 -63.1414 -63.1414
   -63.1383 -63.1371 -63.1359 -63.1216 -63.1215 -63.1149 -63.1144 -63.1040
   -63.1027 -63.1027 -63.1011 -63.0996 -63.0986 -63.0978 -63.0931 -63.0929
   -63.0914 -63.0910 -63.0896 -63.0889 -63.0842 -63.0808 -63.0762 -63.0749
   -63.0704 -63.0690 -63.0686 -63.0683 -63.0632 -63.0630 -63.0583 -63.0578
   -63.0570 -63.0560 -63.0544 -63.0522 -63.0502 -63.0476 -63.0450 -63.0421
   -63.0418 -63.0388 -63.0375 -63.0353 -63.0334 -63.0304 -63.0257 -63.0232
   -63.0216 -63.0215 -63.0198 -63.0196 -63.0172 -63.0160 -63.0135 -63.0083
   -63.0078 -63.0040 -63.0036 -63.0003 -62.9968 -62.9960 -62.9948 -62.9941
   -62.9931 -62.9921 -62.9915 -62.9906 -62.9898 -62.9895 -62.9891 -62.9853
   -62.9845 -62.9839 -62.9831 -62.9805 -62.9795 -62.9785 -62.9751 -62.9748
   -62.9746 -62.9727 -62.9713 -62.9709 -62.9701 -62.9688 -62.9685 -62.9676
   -62.9670 -62.9659 -62.9657 -62.9653 -62.9651 -62.9632 -62.9624 -62.9601
   -62.9594 -62.9565 -62.9558 -62.9555 -62.9548 -62.9537 -62.9531 -62.9530
   -62.9523 -62.9521 -62.9492 -62.9475 -62.9422 -62.9410 -62.9405 -62.9391
   -62.9389 -62.9375 -62.9371 -62.9350 -62.9341 -62.9338 -62.9321 -62.9289
   -29.8951 -19.8055 -19.8008 -19.0072 -19.0061 -18.4236 -18.4213 -17.7574
   -17.7176 -17.2491 -17.1772 -16.8089 -16.4265 -16.4139 -16.4112 -16.3847
   -16.0129 -15.9602 -15.5749 -15.5725 -15.5721 -15.5682 -15.5658 -15.5344
   -15.4816 -15.4479 -15.4385 -15.4303 -15.4257 -15.4042 -15.0120 -15.0112
   -15.0070 -15.0059 -15.0053 -14.9854 -14.7944 -14.7932 -14.5443 -14.5415
   -14.5178 -14.5093 -14.4999 -14.4902 -14.4455 -14.4444 -14.4095 -14.4072
   -14.3923 -14.3895 -14.2529 -14.2399 -14.2382 -14.2261 -14.2170 -14.1910
   -13.9702 -13.9645 -13.9583 -13.9579 -13.9531 -13.9368 -13.7356 -13.7350
   -13.6947 -13.6751 -13.6432 -13.6238 -13.5400 -13.5263 -13.4578 -13.4576
   -13.4497 -13.4467 -13.4289 -13.4284 -13.4199 -13.4148 -13.4043 -13.3988
   -13.3292 -13.3263 -13.3240 -13.3157 -13.3141 -13.3085 -13.3056 -13.3041
   -13.2924 -13.2916 -13.2905 -13.2862 -13.0973 -13.0949 -13.0709 -13.0666
   -12.9712 -12.9577 -12.9535 -12.9529 -12.9429 -12.9251 -12.9110 -12.9057
   -12.9029 -12.8932 -12.8778 -12.8762 -12.8761 -12.8734 -12.8695 -12.8691
   -12.8617 -12.8492 -12.8286 -12.8228 -12.8159 -12.8154 -12.8133 -12.8124
   -12.8053 -12.8022 -12.7947 -12.7822 -12.7734 -12.7699 -12.7673 -12.7373
   -12.7243 -12.7164 -12.7162 -12.7131 -12.7054 -12.7020 -12.6962 -12.6923
   -12.6882 -12.6797 -12.6765 -12.6438 -12.6318 -12.6220 -12.4994 -12.4928
   -12.4609 -12.4408 -12.4373 -12.4351 -12.4225 -12.4094 -12.3755 -12.3707
   -12.3668 -12.3566 -12.2974 -12.2634 -12.2537 -12.2511 -12.2470 -12.2405
   -12.2178 -12.2048 -12.1905 -12.1837 -12.1826 -12.1688 -12.1463 -12.1320
   -12.0108 -12.0038 -12.0038 -11.9909 -11.9511 -11.9355 -11.9241 -11.9209
   -11.9195 -11.9041 -11.9010 -11.8875 -11.8716 -11.8357 -11.8355 -11.8174
   -11.8019 -11.7778 -11.7731 -11.7667 -11.7002 -11.6984 -11.6876 -11.6769
   -11.5173 -11.5002 -11.4460 -11.4340 -11.4217 -11.3791 -11.3334 -11.3286
   -11.1636 -11.1514 -11.1392 -11.1299 -11.1282 -11.1261 -11.1043 -11.0781
   -11.0099 -11.0086 -10.9753 -10.9746 -10.9671 -10.9576 -10.9309 -10.8976
   -10.8891 -10.8804 -10.8588 -10.8469 -10.8410 -10.8374 -10.8288 -10.7733
[...]
   -10.4255 -10.4131 -10.3949 -10.3684 -10.3614 -10.3328 -10.3148 -10.2886
   -10.2368 -10.2308 -10.2155 -10.2089 -10.1935 -10.1891 -10.1873 -10.1850
   -10.1809 -10.1645 -10.1639 -10.1619 -10.1468 -10.1358 -10.1349 -10.1338
   -10.1327 -10.1276 -10.1207 -10.1077 -10.1068 -10.0845 -10.0839 -10.0764
   -10.0685 -10.0576 -10.0509 -10.0420 -10.0334 -10.0333 -10.0326 -10.0310
   -10.0283 -10.0165 -10.0128  -9.9990  -9.9890  -9.9829  -9.9662  -9.9646
    -9.9612  -9.9599  -9.9533  -9.9476  -9.9473  -9.9464  -9.9354  -9.9077
    -9.9036  -9.9033  -9.8515  -9.8446  -9.8410  -9.8273  -9.8077  -9.8075
    -9.8073  -9.7832  -9.7829  -9.7727  -9.7664  -9.7644  -9.7639  -9.7614
    -9.7523  -9.7522  -9.7491  -9.7489  -9.7471  -9.7441  -9.7393  -9.7390
    -9.7276  -9.7262  -9.6948  -9.6921  -9.6882  -9.6834  -9.6808  -9.6695
    -9.6691  -9.6657  -9.6593  -9.6586  -9.6469  -9.6428  -9.5853  -9.5747
    -9.5712  -9.5678  -9.5603  -9.5510  -9.4024  -9.3757  -9.3744  -9.3551
    -9.3203  -9.2920  -9.1528  -9.1429  -9.1405  -9.1384  -9.1000  -9.0724
    -9.0591  -9.0552  -9.0429

     the Fermi energy is   -11.9055 ev

!    total energy              =  -21096.33037020 Ry
     Harris-Foulkes estimate   =  -21096.33037044 Ry
     estimated scf accuracy    <          5.9E-12 Ry

     The total energy is the sum of the following terms:

     one-electron contribution = -743380.80481815 Ry
     hartree contribution      =  371234.91572449 Ry
     xc contribution           =   -2235.63483556 Ry
     ewald contribution        =  358160.00861306 Ry
     Dispersion Correction     =      -1.39197852 Ry
     one-center paw contrib.   =   -4873.42338371 Ry
     smearing contrib. (-TS)   =       0.00030818 Ry

     total magnetization       =   162.36 Bohr mag/cell
     absolute magnetization    =   170.08 Bohr mag/cell

     convergence has been achieved in  31 iterations

     negative rho (up, down):  1.001E-02 1.242E-01

     Forces acting on atoms (cartesian axes, Ry/au):

     atom    1 type  1   force =    -0.00011801   -0.00007802    0.00925357
     atom    2 type  1   force =    -0.00001228   -0.00003358   -0.01046800
     atom    3 type  1   force =     0.00069999    0.00048889    0.00955622
     atom    4 type  1   force =     0.00040960    0.00029130   -0.00773044
     atom    5 type  1   force =     0.00001085    0.00000759   -0.00002173
     atom    6 type  1   force =    -0.00000071    0.00000049   -0.00000738
     atom    7 type  1   force =     0.00004479    0.00002975    0.00010280
     atom    8 type  1   force =     0.00002014    0.00001303   -0.00000497
     atom    9 type  1   force =     0.00017897   -0.00004666    0.00964468
     atom   10 type  1   force =     0.00003687    0.00017188    0.00964436
     atom   11 type  1   force =    -0.00004018   -0.00005074   -0.00857594
     atom   12 type  1   force =    -0.00006072   -0.00000952   -0.00860458
     atom   13 type  1   force =     0.00001077    0.00000368   -0.00001516
     atom   14 type  1   force =     0.00000651    0.00000521   -0.00001520
     atom   15 type  1   force =     0.00003229    0.00000891   -0.00000094
     atom   16 type  1   force =     0.00001706    0.00002633    0.00000061
     atom   17 type  1   force =    -0.00033409   -0.00010655    0.00972339
     atom   18 type  1   force =     0.00000405   -0.00000797   -0.00896487
     atom   19 type  1   force =     0.00023839    0.00028977    0.00974344
     atom   20 type  1   force =    -0.00151367    0.00211258   -0.00586905
     atom   21 type  1   force =    -0.00000783    0.00001043    0.00000860
     atom   22 type  1   force =    -0.00000183   -0.00000351   -0.00003593
     atom   23 type  1   force =     0.00000019    0.00001017    0.00000937
     atom   24 type  1   force =     0.00001750   -0.00003187    0.00002329
     atom   25 type  1   force =    -0.00005776    0.00010096    0.00919451
     atom   26 type  1   force =    -0.00022654    0.00032947    0.00961809
     atom   27 type  1   force =     0.00003194    0.00109043   -0.00856507
     atom   28 type  1   force =     0.00005410   -0.00004458   -0.00856991
     atom   29 type  1   force =     0.00000518   -0.00000328    0.00011665
     atom   30 type  1   force =    -0.00000557    0.00001233    0.00004391
     atom   31 type  1   force =     0.00004544    0.00003868    0.00005300
     atom   32 type  1   force =    -0.00001001   -0.00002456   -0.00001473
     atom   33 type  1   force =    -0.00021961   -0.00027753    0.00971149
     atom   34 type  1   force =    -0.00000818    0.00002419   -0.00896182
     atom   35 type  1   force =     0.00032927    0.00011286    0.00973022
     atom   36 type  1   force =     0.00148472   -0.00213103   -0.00583645
     atom   37 type  1   force =     0.00000793   -0.00001002    0.00000735
     atom   38 type  1   force =     0.00000177   -0.00000067   -0.00003487
     atom   39 type  1   force =     0.00000753   -0.00000596    0.00000890
     atom   40 type  1   force =    -0.00002408    0.00002690    0.00003454
     atom   41 type  1   force =     0.00024068   -0.00033556    0.00963701
     atom   42 type  1   force =     0.00007410   -0.00008837    0.00919697
     atom   43 type  1   force =    -0.00003363    0.00006852   -0.00859845
     atom   44 type  1   force =     0.00104107   -0.00034956   -0.00857865
     atom   45 type  1   force =     0.00001148   -0.00001024    0.00004703
     atom   46 type  1   force =    -0.00000119    0.00000621    0.00011961
     atom   47 type  1   force =    -0.00002390   -0.00000045   -0.00001610
     atom   48 type  1   force =     0.00005727    0.00002939    0.00004539
     atom   49 type  1   force =    -0.00071747   -0.00050058    0.00960335
     atom   50 type  1   force =     0.00000079    0.00001603   -0.00373002
     atom   51 type  1   force =     0.00010619    0.00009046    0.00921776
     atom   52 type  1   force =    -0.00038935   -0.00027643   -0.00772811
     atom   53 type  1   force =    -0.00003823   -0.00002945    0.00009990
     atom   54 type  1   force =     0.00000628    0.00000109   -0.00008899
     atom   55 type  1   force =    -0.00000587   -0.00000348   -0.00003601
     atom   56 type  1   force =    -0.00002077   -0.00001640   -0.00001738
     atom   57 type  1   force =    -0.00003954   -0.00015962    0.00965323
     atom   58 type  1   force =    -0.00017786    0.00001599    0.00965735
     atom   59 type  1   force =    -0.00004160   -0.00111870   -0.00863743
     atom   60 type  1   force =    -0.00106224    0.00031487   -0.00862868
     atom   61 type  1   force =    -0.00000748   -0.00000427   -0.00002238
     atom   62 type  1   force =    -0.00000376   -0.00000561   -0.00002051
     atom   63 type  1   force =    -0.00003292   -0.00003614    0.00004850
     atom   64 type  1   force =    -0.00004093   -0.00002027    0.00005267
     atom   65 type  2   force =     0.00003668   -0.00002914   -0.00001203
     atom   66 type  3   force =    -0.00001263    0.00006108   -0.00000358
     atom   67 type  3   force =     0.00001260    0.00000962   -0.00005546
     atom   68 type  3   force =     0.00000739    0.00003126   -0.00001814

     Total force =     0.000341     Total SCF correction =     0.000003
     Message from routine bfgs:
     history already reset at previous step: stopping

     bfgs converged in  31 scf cycles and  26 bfgs steps
     (criteria: energy <  7.3E-07 Ry, force <  3.9E-04 Ry/Bohr)

     End of BFGS Geometry Optimization

     Final energy   =  -21096.3303701959 Ry
Begin final coordinates

ATOMIC_POSITIONS (angstrom)
Fe       1.654912953   1.170200133   0.000000000    0   0   0
Fe       0.000000000   0.000000000   2.026984232    0   0   0
Fe       4.964738858   3.510600399   0.000000000    0   0   0
Fe       3.309825906   2.340400266   2.026984232    0   0   0
Fe       1.654112741   1.169578274   4.032149562
Fe       3.310145037   9.361840168   6.014262434
Fe       4.972665882   3.516081590   4.032352467
Fe       3.306740070   2.338283064   5.998867883
Fe       2.482363858   3.510600399   0.000000000    0   0   0
Fe       4.137287953   1.170200133   0.000000000    0   0   0
Fe       0.827450906   2.340400266   2.026984232    0   0   0
Fe       2.482375000   0.000000000   2.026984232    0   0   0
Fe       2.482515258   3.512644658   4.031861012
Fe       4.139274243   1.169652156   4.031990668
Fe       0.820800607   2.346378532   6.016471168
Fe       2.485831949  -0.008331103   6.016606919
Fe       6.619662953   1.170200133   0.000000000    0   0   0
Fe       4.964750000   0.000000000   2.026984232    0   0   0
Fe       9.929488858   3.510600399   0.000000000    0   0   0
Fe       8.274575906   2.340400266   2.026984232    0   0   0
Fe       6.621476387   1.170901858   4.022760656
Fe       4.964308880  -0.001246490   6.032148420
Fe       9.927609510   3.509070254   4.022502835
Fe       8.275038086   2.339317193   5.969356796
Fe       7.447113858   3.510600399   0.000000000    0   0   0
Fe       9.102037953   1.170200133   0.000000000    0   0   0
Fe       5.792200906   2.340400266   2.026984232    0   0   0
Fe       7.447125000   0.000000000   2.026984232    0   0   0
Fe       7.429823579   3.534275063   4.062109064
Fe       9.103217143   1.168370183   4.022106940
Fe       5.794568693   2.336303563   5.988979693
Fe      10.753338220   9.368770913   6.017068552
Fe       3.309814764   5.851000664   0.000000000    0   0   0
Fe       1.654901811   4.680800531   2.026984232    0   0   0
Fe       6.619640670   8.191400930   0.000000000    0   0   0
Fe       4.964727717   7.021200797   2.026984232    0   0   0
Fe       3.311062149   5.852661092   4.022620684
Fe      11.583483192   4.680527668   6.032167342
Fe       6.617466643   8.190262216   4.022400424
Fe       4.964153768   7.021735779   5.970592552
Fe       4.137265670   8.191400930   0.000000000    0   0   0
Fe       5.792189764   5.851000664   0.000000000    0   0   0
Fe       2.482352717   7.021200797   2.026984232    0   0   0
Fe       4.137276811   4.680800531   2.026984232    0   0   0
Fe       4.136015470   8.193062442   4.022347543
Fe       5.808712690   5.826931922   4.062087229
Fe      12.417577649   7.015340161   6.017162956
Fe       4.134266369   4.684411818   5.987941038
Fe       8.274564764   5.851000664   0.000000000    0   0   0
Fe       6.619651811   4.680800531   2.026984232    0   0   0
Fe      11.584390670   8.191400930   0.000000000    0   0   0
Fe       9.929477717   7.021200797   2.026984232    0   0   0
Fe       8.266426873   5.845082784   4.032436249
Fe       6.618636810   4.680645693   6.355070219
Fe      11.585102991   8.191826611   4.032363083
Fe       9.932011368   7.022997452   5.999126754
Fe       9.102015670   8.191400930   0.000000000    0   0   0
Fe      10.756939764   5.851000664   0.000000000    0   0   0
Fe       7.447102717   7.021200797   2.026984232    0   0   0
Fe       9.102026811   4.680800531   2.026984232    0   0   0
Fe       9.099836613   8.191407364   4.031910096
Fe      10.756235199   5.848884893   4.032031830
Fe       7.444114078   7.023492603   5.988311312
Fe       9.103307728   4.677074922   5.989344732
N        6.622767892   4.681080527   8.432174005
H        6.602192246   5.621694924   8.844583156
H        5.815380025   4.193668104   8.840045973
H        7.445820986   4.223626844   8.842789807
End final coordinates

     Writing output data file Fe_NH3_paper_480c_ESM_pn5.save/

     General routines

     Parallel routines

   This run was terminated on:   8:10:47  20Jun2022

   JOB DONE.