     Program PWSCF v.6.4.1 starts on 10Jun2022 at  6: 7:26

     K-points division:     npool     =       8
     R & G space division:  proc/nbgrp/npool/nimage =      20
     Waiting for input...
     Reading input from standard input
Warning: card &CELL ignored
Warning: card / ignored

     Current dimensions of program PWSCF are:
     Max number of different atomic species (ntypx) = 10
     Max number of k-points (npk) =  40000
     Max angular momentum in pseudopotentials (lmaxx) =  3

     IMPORTANT: XC functional enforced from input :
     Exchange-correlation      = PBE ( 1  4  3  4 0 0)
     Any further DFT definition will be discarded
     Please, verify this is what you really want

               file Fe.pbe-spn-kjpaw_psl.0.2.1.UPF: wavefunction(s)  3D renormalized

     Parameters for Dispersion (Grimme-D2) Correction:
       atom      VdW radius       C_6

        Fe         2.952        374.666
        N          2.640         42.670

     bravais-lattice index     =            0
     lattice parameter (alat)  =      18.7640  a.u.
     unit-cell volume          =   16360.3163 (a.u.)^3
     number of atoms/cell      =           65
     number of atomic types    =            2
     number of electrons       =      1029.00
     number of Kohn-Sham states=          618
     kinetic-energy cutoff     =      60.0000  Ry
     charge density cutoff     =     480.0000  Ry
     convergence threshold     =      1.0E-08
     mixing beta               =       0.2000
     number of iterations used =           10  local-TF  mixing
     Exchange-correlation      = PBE ( 1  4  3  4 0 0)
     nstep                     =           50

     Effective Screening Medium Method
     Boundary Conditions: Metal-Slab-Metal
     field strength                   =     0.01 Ry/a.u.
     grid points for fit at edges     =        4

     celldm(1)=  18.764036  celldm(2)=   0.000000  celldm(3)=   0.000000
     celldm(4)=   0.000000  celldm(5)=   0.000000  celldm(6)=   0.000000

     crystal axes: (cart. coord. in units of alat)
               a(1) = (   1.000000   0.000000   0.000000 )
               a(2) = (   0.333330   0.942807   0.000000 )
               a(3) = (   0.000000   0.000000   2.626577 )

     reciprocal axes: (cart. coord. in units 2 pi/alat)
               b(1) = (  1.000000 -0.353551  0.000000 )
               b(2) = (  0.000000  1.060663  0.000000 )
               b(3) = (  0.000000  0.000000  0.380724 )

     PseudoPot. # 1 for Fe read from file:
     ../../SSSP/Fe.pbe-spn-kjpaw_psl.0.2.1.UPF
     MD5 check sum: e86618425769142926afa95317d90200
     Pseudo is Projector augmented-wave + core cor, Zval = 16.0
     Generated using "atomic" code by A. Dal Corso v.5.0.99 svn rev. 10869
     Shape of augmentation charge: PSQ
     Using radial grid of 1191 points,  6 beta functions with:
                l(1) =   0
                l(2) =   0
                l(3) =   1
                l(4) =   1
                l(5) =   2
                l(6) =   2
     Q(r) pseudized with 0 coefficients

     PseudoPot. # 2 for N  read from file:
     ../../SSSP/N.pbe-n-radius_5.UPF
     MD5 check sum: 16739722b17309cd8fe442a2ace49922
     Pseudo is Ultrasoft + core correction, Zval =  5.0
     Generated using "atomic" code by A. Dal Corso v.5.1
     Using radial grid of 1085 points,  4 beta functions with:
                l(1) =   0
                l(2) =   0
                l(3) =   1
                l(4) =   1
     Q(r) pseudized with 0 coefficients

     atomic species   valence    mass     pseudopotential
        Fe            16.00    55.84500     Fe( 1.00)
        N              5.00    14.00700     N ( 1.00)

     Starting magnetic structure
     atomic species   magnetization
        Fe           0.100
        N            0.100

     No symmetry found

   Cartesian axes

     site n.     atom                  positions (alat units)
         1           Fe  tau(   1) = (   0.1666663   0.1178509   0.0000000  )
         2           Fe  tau(   2) = (   0.0000000   0.0000000   0.2041376  )
         3           Fe  tau(   3) = (   0.4999989   0.3535526   0.0000000  )
         4           Fe  tau(   4) = (   0.3333326   0.2357017   0.2041376  )
         5           Fe  tau(   5) = (   0.1691472   0.1176094   0.4056660  )
         6           Fe  tau(   6) = (   0.3359380   0.9392018   0.6058109  )
         7           Fe  tau(   7) = (   0.4995901   0.3558703   0.4071094  )
         8           Fe  tau(   8) = (   0.3412681   0.2358492   0.6065705  )
         9           Fe  tau(   9) = (   0.2499989   0.3535526   0.0000000  )
        10           Fe  tau(  10) = (   0.4166663   0.1178509   0.0000000  )
        11           Fe  tau(  11) = (   0.0833326   0.2357017   0.2041376  )
        12           Fe  tau(  12) = (   0.2500000   0.0000000   0.2041376  )
        13           Fe  tau(  13) = (   0.2500218   0.3535847   0.4074555  )
        14           Fe  tau(  14) = (   0.4191520   0.1196486   0.4060441  )
        15           Fe  tau(  15) = (   0.0915614   0.2321511   0.6071614  )
        16           Fe  tau(  16) = (   0.2530337   0.0021777   0.6066172  )
        17           Fe  tau(  17) = (   0.6666663   0.1178509   0.0000000  )
        18           Fe  tau(  18) = (   0.5000000   0.0000000   0.2041376  )
        19           Fe  tau(  19) = (   0.9999989   0.3535526   0.0000000  )
        20           Fe  tau(  20) = (   0.8333326   0.2357017   0.2041376  )
        21           Fe  tau(  21) = (   0.6686653   0.1166981   0.4070740  )
        22           Fe  tau(  22) = (   0.5027470   0.0075037   0.6066117  )
        23           Fe  tau(  23) = (   1.0004776   0.3513212   0.4070776  )
        24           Fe  tau(  24) = (   0.8513672   0.2102859   0.6020526  )
        25           Fe  tau(  25) = (   0.7499989   0.3535526   0.0000000  )
        26           Fe  tau(  26) = (   0.9166663   0.1178509   0.0000000  )
        27           Fe  tau(  27) = (   0.5833326   0.2357017   0.2041376  )
        28           Fe  tau(  28) = (   0.7500000   0.0000000   0.2041376  )
        29           Fe  tau(  29) = (   0.7500413   0.3535585   0.4083588  )
        30           Fe  tau(  30) = (   0.9196400   0.1137006   0.4025538  )
        31           Fe  tau(  31) = (   0.5921530   0.2419357   0.6052781  )
        32           Fe  tau(  32) = (   1.0840202   0.9339265   0.6071563  )
        33           Fe  tau(  33) = (   0.3333315   0.5892543   0.0000000  )
        34           Fe  tau(  34) = (   0.1666652   0.4714034   0.2041376  )
        35           Fe  tau(  35) = (   0.6666640   0.8249560   0.0000000  )
        36           Fe  tau(  36) = (   0.4999978   0.7071052   0.2041376  )
        37           Fe  tau(  37) = (   0.3308935   0.5895421   0.4056869  )
        38           Fe  tau(  38) = (   1.1587770   0.4713705   0.6066133  )
        39           Fe  tau(  39) = (   0.6672561   0.8273892   0.4056891  )
        40           Fe  tau(  40) = (   0.4974300   0.7108097   0.6059109  )
        41           Fe  tau(  41) = (   0.4166640   0.8249560   0.0000000  )
        42           Fe  tau(  42) = (   0.5833315   0.5892543   0.0000000  )
        43           Fe  tau(  43) = (   0.2499978   0.7071052   0.2041376  )
        44           Fe  tau(  44) = (   0.4166652   0.4714034   0.2041376  )
        45           Fe  tau(  45) = (   0.4166844   0.8249818   0.4044816  )
        46           Fe  tau(  46) = (   0.5803843   0.5934793   0.4025899  )
        47           Fe  tau(  47) = (   1.2470077   0.7050318   0.6066043  )
        48           Fe  tau(  48) = (   0.4085172   0.4750834   0.6072198  )
        49           Fe  tau(  49) = (   0.8333315   0.5892543   0.0000000  )
        50           Fe  tau(  50) = (   0.6666652   0.4714034   0.2041376  )
        51           Fe  tau(  51) = (   1.1666640   0.8249560   0.0000000  )
        52           Fe  tau(  52) = (   0.9999978   0.7071052   0.2041376  )
        53           Fe  tau(  53) = (   0.8313389   0.5904534   0.4071156  )
        54           Fe  tau(  54) = (   0.6487233   0.4968744   0.6020552  )
        55           Fe  tau(  55) = (   1.1661158   0.8225743   0.4056597  )
        56           Fe  tau(  56) = (   0.9972943   0.6997385   0.6065670  )
        57           Fe  tau(  57) = (   0.9166640   0.8249560   0.0000000  )
        58           Fe  tau(  58) = (   1.0833315   0.5892543   0.0000000  )
        59           Fe  tau(  59) = (   0.7499978   0.7071052   0.2041376  )
        60           Fe  tau(  60) = (   0.9166652   0.4714034   0.2041376  )
        61           Fe  tau(  61) = (   0.9166776   0.8249875   0.4074566  )
        62           Fe  tau(  62) = (   1.0808628   0.5875460   0.4060466  )
        63           Fe  tau(  63) = (   0.7493230   0.7160881   0.6072274  )
        64           Fe  tau(  64) = (   0.9079495   0.4652294   0.6052882  )
        65           N   tau(  65) = (   0.7500494   0.3535840   0.6399018  )

     number of k points=    10  Methfessel-Paxton smearing, width (Ry)=  0.0100
                       cart. coord. in units 2pi/alat
        k(    1) = (   0.0000000   0.0000000   0.0000000), wk =   0.0625000
        k(    2) = (   0.0000000   0.2651656   0.0000000), wk =   0.1250000
        k(    3) = (   0.0000000  -0.5303313   0.0000000), wk =   0.0625000
        k(    4) = (   0.2500000  -0.0883878   0.0000000), wk =   0.1250000
        k(    5) = (   0.2500000   0.1767779   0.0000000), wk =   0.1250000
        k(    6) = (   0.2500000  -0.6187190   0.0000000), wk =   0.1250000
        k(    7) = (   0.2500000  -0.3535534   0.0000000), wk =   0.1250000
        k(    8) = (  -0.5000000   0.1767755   0.0000000), wk =   0.0625000
        k(    9) = (  -0.5000000   0.4419412   0.0000000), wk =   0.1250000
        k(   10) = (  -0.5000000  -0.3535558   0.0000000), wk =   0.0625000

     Check: negative core charge=   -0.000039

     Initial potential from superposition of free atoms

     starting charge 1028.97194, renormalised to 1029.00000

     negative rho (up, down):  2.480E-02 2.555E-03
     Starting wfcs are  836 randomized atomic wfcs
     Checking if some PAW data can be deallocated...

     Self-consistent Calculation

     iteration #  1     ecut=    60.00 Ry     beta= 0.20
     Davidson diagonalization with overlap
     ethr =  1.00E-04,  avg # of iterations = 18.3

     negative rho (up, down):  1.318E-02 3.352E-03

     total energy              =  -21086.40392784 Ry
     Harris-Foulkes estimate   =  -21094.76639570 Ry
     estimated scf accuracy    <     426.13731681 Ry

     total magnetization       =   102.64 Bohr mag/cell
     absolute magnetization    =   103.66 Bohr mag/cell

[...]

     iteration #  8     ecut=    60.00 Ry     beta= 0.20
     Davidson diagonalization with overlap
     c_bands:  2 eigenvalues not converged
     c_bands:  4 eigenvalues not converged
     ethr =  7.10E-05,  avg # of iterations = 20.2

[...]

     Magnetic moment per site:
     atom:    1    charge:   12.6182    magn:    2.3637    constr:    0.0000
     atom:    2    charge:   12.6076    magn:    2.1710    constr:    0.0000
     atom:    3    charge:   12.6177    magn:    2.3665    constr:    0.0000
[...]
     atom:   55    charge:   12.6093    magn:    2.1996    constr:    0.0000
     atom:   56    charge:   12.6152    magn:    2.3553    constr:    0.0000
     atom:   57    charge:   12.6182    magn:    2.3598    constr:    0.0000
     atom:   58    charge:   12.6181    magn:    2.3621    constr:    0.0000
     atom:   59    charge:   12.6062    magn:    2.2109    constr:    0.0000
     atom:   60    charge:   12.6056    magn:    2.2319    constr:    0.0000
     atom:   61    charge:   12.6057    magn:    2.2125    constr:    0.0000
     atom:   62    charge:   12.6099    magn:    2.1945    constr:    0.0000
     atom:   63    charge:   12.6180    magn:    2.3333    constr:    0.0000
     atom:   64    charge:   12.6119    magn:    2.1473    constr:    0.0000
     atom:   65    charge:    3.7370    magn:   -0.1330    constr:    0.0000

     End of self-consistent calculation

 ------ SPIN UP ------------

[...]

 ------ SPIN DOWN ----------

[...]

          k = 0.2500-0.3536 0.0000 (128397 PWs)   bands (ev):

[...]

          k =-0.5000-0.3536 0.0000 (128560 PWs)   bands (ev):

   -88.6470 -88.6466 -88.2034 -88.2032 -88.0756 -88.0742 -88.0649 -87.9772
   -87.9634 -87.9554 -87.9519 -87.9461 -87.9454 -87.9341 -87.9329 -87.9308
   -87.9246 -87.9245 -87.9206 -87.9194 -87.9169 -87.9164 -87.9129 -87.9126
   -87.9112 -87.9111 -87.9083 -87.9061 -87.9058 -87.9030 -87.9024 -87.9020
   -87.9010 -87.8947 -87.8914 -87.8889 -87.8850 -87.8823 -87.8798 -87.8794
   -87.8775 -87.8773 -87.8759 -87.8751 -87.8724 -87.8722 -87.8693 -87.8668
   -87.8649 -87.8573 -87.8554 -87.8534 -87.8526 -87.8519 -87.8518 -87.8493
   -87.8491 -87.8491 -87.8477 -87.8464 -87.8338 -87.8298 -87.8284 -87.8262
   -55.1957 -55.1875 -54.6445 -54.6350 -54.5622 -54.5552 -54.5114 -54.5061
   -54.3038 -54.2958 -54.2860 -54.2846 -54.2785 -54.2765 -54.2630 -54.2404
   -54.2391 -54.2383 -54.2295 -54.2263 -54.2200 -54.2195 -54.2131 -54.2076
   -54.2064 -54.2062 -54.2028 -54.1979 -54.1970 -54.1921 -54.1903 -54.1874
   -54.1821 -54.1747 -54.1746 -54.1709 -54.1699 -54.1657 -54.1655 -54.1636
   -54.1631 -54.1613 -54.1601 -54.1561 -54.1514 -54.1443 -54.1435 -54.1425
   -54.1424 -54.1400 -54.1346 -54.1303 -54.1295 -54.1294 -54.1264 -54.1240
   -54.1231 -54.1230 -54.1204 -54.1201 -54.1187 -54.1177 -54.1145 -54.1132
   -54.1131 -54.1127 -54.1093 -54.1064 -54.1036 -54.1016 -54.1014 -54.0993
   -54.0887 -54.0805 -54.0731 -54.0731 -54.0681 -54.0631 -54.0618 -54.0557
   -54.0523 -54.0510 -54.0500 -54.0459 -54.0302 -54.0280 -54.0274 -54.0270
   -54.0220 -54.0161 -54.0144 -54.0142 -54.0122 -54.0122 -54.0076 -54.0059
   -54.0037 -54.0032 -54.0003 -53.9999 -53.9952 -53.9946 -53.9911 -53.9901
   -53.9898 -53.9851 -53.9797 -53.9784 -53.9780 -53.9724 -53.9715 -53.9715
   -53.9710 -53.9703 -53.9696 -53.9671 -53.9667 -53.9641 -53.9622 -53.9568
   -53.9550 -53.9536 -53.9460 -53.9436 -53.9435 -53.9408 -53.9401 -53.9398
   -53.9385 -53.9366 -53.9348 -53.9293 -53.9270 -53.9246 -53.9228 -53.9204
   -53.9192 -53.9180 -53.9166 -53.9153 -53.9151 -53.9142 -53.9111 -53.9108
   -53.9106 -53.9101 -53.9082 -53.9068 -53.9056 -53.9054 -53.9052 -53.9034
   -53.9032 -53.9003 -53.9002 -53.8996 -53.8961 -53.8953 -53.8945 -53.8913
   -53.8896 -53.8879 -53.8878 -53.8867 -53.8828 -53.8823 -53.8817 -53.8809
   -53.8805 -53.8799 -53.8794 -53.8771 -53.8760 -53.8758 -53.8753 -53.8740
   -53.8739 -53.8720 -53.8671 -53.8659 -53.8648 -53.8644 -53.8637 -53.8605
   -53.8577 -53.8570 -53.8565 -53.8522 -53.8518 -53.8497 -53.8462 -53.8438
   -18.5351  -9.9564  -9.9113  -9.4511  -9.3335  -8.9898  -8.8306  -8.5878
    -8.4439  -8.1479  -7.9609  -7.8000  -7.3505  -7.2960  -7.2855  -7.1699
    -6.9065  -6.8666  -6.5224  -6.5136  -6.4926  -6.4659  -6.4604  -6.4049
    -6.3882  -6.3634  -6.3297  -6.3162  -6.2969  -6.1607  -5.9415  -5.9372
    -5.9353  -5.9295  -5.8864  -5.8363  -5.7404  -5.5952  -5.4777  -5.4742
    -5.4678  -5.4374  -5.4150  -5.4114  -5.4051  -5.3650  -5.3363  -5.3126
    -5.2772  -5.1781  -5.1765  -5.1646  -5.1519  -5.1382  -5.1237  -4.9430
    -4.9295  -4.9020  -4.9010  -4.8761  -4.8551  -4.8285  -4.6758  -4.6483
    -4.6261  -4.6166  -4.5691  -4.5637  -4.5587  -4.4914  -4.4466  -4.4268
    -4.4101  -4.3864  -4.3763  -4.3638  -4.3620  -4.3404  -4.3391  -4.3218
    -4.3050  -4.2625  -4.2426  -4.2390  -4.2331  -4.2330  -4.2264  -4.2243
    -4.2021  -4.1966  -4.1704  -4.1510  -4.0559  -4.0263  -4.0238  -4.0170
    -4.0148  -3.9336  -3.9219  -3.8969  -3.8845  -3.8801  -3.8778  -3.8619
    -3.8549  -3.8475  -3.8455  -3.8088  -3.8070  -3.7962  -3.7880  -3.7859
    -3.7795  -3.7779  -3.7639  -3.7622  -3.7517  -3.7482  -3.7442  -3.7394
    -3.7148  -3.7132  -3.7123  -3.7065  -3.7048  -3.6951  -3.6867  -3.6734
    -3.6650  -3.6427  -3.6384  -3.6373  -3.6352  -3.6268  -3.6223  -3.6159
    -3.6107  -3.5869  -3.5855  -3.5700  -3.4563  -3.4163  -3.4103  -3.4021
    -3.3848  -3.3846  -3.3710  -3.3695  -3.3586  -3.3480  -3.3399  -3.3251
    -3.2654  -3.2519  -3.2290  -3.2064  -3.2027  -3.1994  -3.1817  -3.1608
    -3.1580  -3.1406  -3.1285  -3.1203  -3.0747  -3.0588  -3.0379  -3.0304
    -2.9869  -2.9811  -2.9730  -2.9126  -2.8994  -2.8566  -2.8471  -2.8324
    -2.8229  -2.8048  -2.8021  -2.7730  -2.7617  -2.7577  -2.7476  -2.7349
    -2.7320  -2.7235  -2.6893  -2.6849  -2.4928  -2.4895  -2.4768  -2.4768
    -2.3740  -2.3426  -2.3394  -2.2275  -2.1836  -2.1658  -2.1505  -2.0861
    -2.0624  -2.0463  -2.0447  -2.0051  -1.9781  -1.9588  -1.9567  -1.9355
    -1.9143  -1.8934  -1.8420  -1.8177  -1.8134  -1.8089  -1.8087  -1.7915
    -1.7259  -1.7071  -1.6956  -1.6933  -1.6815  -1.6762  -1.6297  -1.6142
[...]
    -1.2584  -1.2162  -1.2140  -1.2077  -1.2064  -1.1888  -1.1619  -1.1579
    -1.1577  -1.1362  -1.1325  -1.1319  -1.1029  -1.1020  -1.0873  -1.0866
    -1.0794  -1.0731  -1.0696  -1.0642  -1.0484  -1.0470  -1.0402  -1.0322
    -1.0215  -0.9998  -0.9978  -0.9974  -0.9856  -0.9839  -0.9714  -0.9697
    -0.9657  -0.9616  -0.9577  -0.9542  -0.9329  -0.9285  -0.9268  -0.9208
    -0.9116  -0.8930  -0.8913  -0.8877  -0.8823  -0.8793  -0.8743  -0.8738
    -0.8610  -0.8408  -0.8352  -0.8324  -0.8119  -0.7934  -0.7889  -0.7797
    -0.7668  -0.7663  -0.7605  -0.7519  -0.7388  -0.7324  -0.7225  -0.7035
    -0.7033  -0.6904  -0.6870  -0.6839  -0.6734  -0.6688  -0.6619  -0.6581
    -0.6547  -0.6516  -0.6486  -0.6418  -0.6345  -0.6292  -0.6125  -0.6060
    -0.6042  -0.5952  -0.5893  -0.5830  -0.5749  -0.5693  -0.5438  -0.5270
    -0.5206  -0.5195  -0.5188  -0.4869  -0.4846  -0.4733  -0.3533  -0.3188
    -0.2835  -0.2741  -0.2396  -0.1587  -0.0720  -0.0712  -0.0543  -0.0466
    -0.0175  -0.0030   0.0037   0.0049   0.0310   0.0387   0.0480   0.2500
     0.2689   0.2767

     the Fermi energy is    -2.8165 ev

!    total energy              =  -21092.55908219 Ry
     Harris-Foulkes estimate   =  -21092.55908148 Ry
     estimated scf accuracy    <          6.8E-11 Ry

     The total energy is the sum of the following terms:

     one-electron contribution = -742618.05605908 Ry
     hartree contribution      =  371197.18859395 Ry
     xc contribution           =   -2233.60208280 Ry
     ewald contribution        =  357436.74130660 Ry
     Dispersion Correction     =      -1.38870469 Ry
     one-center paw contrib.   =   -4873.44576353 Ry
     smearing contrib. (-TS)   =       0.00362736 Ry

     total magnetization       =   160.92 Bohr mag/cell
     absolute magnetization    =   167.74 Bohr mag/cell

     convergence has been achieved in  17 iterations

     negative rho (up, down):  2.520E-02 1.866E-02

     Forces acting on atoms (cartesian axes, Ry/au):

     atom    1 type  1   force =     0.00005474    0.00065953    0.00892334
     atom    2 type  1   force =     0.00287831   -0.00404945   -0.01533726
     atom    3 type  1   force =    -0.00072951   -0.00065161    0.00815002
     atom    4 type  1   force =     0.00063835    0.00100822   -0.00827478
     atom    5 type  1   force =    -0.00004022   -0.00001875    0.00002527
     atom    6 type  1   force =    -0.00000450    0.00000264    0.00003800
     atom    7 type  1   force =     0.00006066    0.00005139   -0.00005046
     atom    8 type  1   force =    -0.00003138    0.00004440   -0.00000082
     atom    9 type  1   force =     0.00002710   -0.00001901    0.00822651
     atom   10 type  1   force =    -0.00072524   -0.00052941    0.00878613
     atom   11 type  1   force =     0.00086730   -0.00046873   -0.00814655
     atom   12 type  1   force =     0.00059267    0.00048107   -0.01264601
     atom   13 type  1   force =    -0.00000256   -0.00000063    0.00003451
     atom   14 type  1   force =    -0.00000986   -0.00001261   -0.00000277
     atom   15 type  1   force =    -0.00006277   -0.00004846    0.00006739
     atom   16 type  1   force =    -0.00003973   -0.00003336   -0.00000831
     atom   17 type  1   force =    -0.00086708   -0.00040043    0.00812614
     atom   18 type  1   force =     0.00115768    0.00027361   -0.00827065
     atom   19 type  1   force =     0.00066660    0.00067947    0.00811196
     atom   20 type  1   force =    -0.00100767    0.00146344   -0.00319984
     atom   21 type  1   force =     0.00007428    0.00004254   -0.00004767
     atom   22 type  1   force =     0.00003586   -0.00004073    0.00001309
     atom   23 type  1   force =    -0.00006775   -0.00005830   -0.00004583
     atom   24 type  1   force =    -0.00000653    0.00000274   -0.00010135
     atom   25 type  1   force =     0.00002138   -0.00001871    0.00796936
     atom   26 type  1   force =    -0.00116569    0.00165224    0.00771404
     atom   27 type  1   force =     0.00129547    0.00086664   -0.00377474
     atom   28 type  1   force =     0.00016359   -0.00095517   -0.00814737
     atom   29 type  1   force =    -0.00000397    0.00000101   -0.00007214
     atom   30 type  1   force =    -0.00001404    0.00001713   -0.00006149
     atom   31 type  1   force =    -0.00000463   -0.00000245    0.00002451
     atom   32 type  1   force =     0.00005840    0.00003810    0.00006795
     atom   33 type  1   force =    -0.00006734   -0.00067891    0.00892569
     atom   34 type  1   force =    -0.00062695   -0.00099165   -0.00827274
     atom   35 type  1   force =     0.00065594   -0.00016156    0.00893465
     atom   36 type  1   force =    -0.00292447    0.00412800   -0.01531730
     atom   37 type  1   force =     0.00003374    0.00001367    0.00002722
     atom   38 type  1   force =     0.00002148   -0.00005331    0.00001270
     atom   39 type  1   force =    -0.00002625   -0.00003132    0.00002878
     atom   40 type  1   force =     0.00000796   -0.00001746    0.00004569
     atom   41 type  1   force =     0.00002648   -0.00003054    0.00952812
     atom   42 type  1   force =     0.00118300   -0.00166220    0.00775622
     atom   43 type  1   force =    -0.00064631   -0.00038206   -0.01265441
     atom   44 type  1   force =    -0.00086981    0.00049163   -0.00807310
     atom   45 type  1   force =    -0.00000057   -0.00000516    0.00003500
     atom   46 type  1   force =     0.00000816   -0.00001511   -0.00007379
     atom   47 type  1   force =     0.00003862    0.00002138   -0.00000503
     atom   48 type  1   force =     0.00006040    0.00003187    0.00007258
     atom   49 type  1   force =     0.00085546    0.00046587    0.00816172
     atom   50 type  1   force =     0.00108228   -0.00151358   -0.00317254
     atom   51 type  1   force =    -0.00064511    0.00016779    0.00893750
     atom   52 type  1   force =    -0.00115522   -0.00024466   -0.00827951
     atom   53 type  1   force =    -0.00007267   -0.00004431   -0.00005262
     atom   54 type  1   force =     0.00000616   -0.00001382   -0.00010943
     atom   55 type  1   force =     0.00002684    0.00002836    0.00002586
     atom   56 type  1   force =    -0.00003781    0.00003901    0.00000234
     atom   57 type  1   force =    -0.00000500   -0.00003935    0.00823390
     atom   58 type  1   force =     0.00072142    0.00049627    0.00878680
     atom   59 type  1   force =    -0.00016047    0.00099534   -0.00807116
     atom   60 type  1   force =    -0.00124145   -0.00090850   -0.00377420
     atom   61 type  1   force =    -0.00000296   -0.00000175    0.00003492
     atom   62 type  1   force =     0.00001142    0.00000353   -0.00000729
     atom   63 type  1   force =    -0.00005881   -0.00005614    0.00007397
     atom   64 type  1   force =    -0.00000873   -0.00000199    0.00002456
     atom   65 type  2   force =     0.00000133   -0.00000566    0.00007633

     Total force =     0.000401     Total SCF correction =     0.000050
     SCF correction compared to forces is large: reduce conv_thr to get better values

     bfgs converged in  11 scf cycles and  10 bfgs steps
     (criteria: energy <  7.3E-07 Ry, force <  3.9E-04 Ry/Bohr)

     End of BFGS Geometry Optimization

     Final energy   =  -21092.5590821923 Ry
Begin final coordinates

ATOMIC_POSITIONS (angstrom)
Fe       1.654912953   1.170200133   0.000000000    0   0   0
Fe       0.000000000   0.000000000   2.026984232    0   0   0
Fe       4.964738858   3.510600399   0.000000000    0   0   0
Fe       3.309825906   2.340400266   2.026984232    0   0   0
Fe       1.679584266   1.167627430   4.028607107
Fe       3.335837652   9.325435238   6.018362211
Fe       4.960706983   3.533291367   4.043666682
Fe       3.388962819   2.340903037   6.025492173
Fe       2.482363858   3.510600399   0.000000000    0   0   0
Fe       4.137287953   1.170200133   0.000000000    0   0   0
Fe       0.827450906   2.340400266   2.026984232    0   0   0
Fe       2.482375000   0.000000000   2.026984232    0   0   0
Fe       2.482594629   3.510839546   4.046849330
Fe       4.161835533   1.187905427   4.032145037
Fe       0.910626817   2.305542045   6.030254841
Fe       2.512999457   0.021880251   6.025757689
Fe       6.619662953   1.170200133   0.000000000    0   0   0
Fe       4.964750000   0.000000000   2.026984232    0   0   0
Fe       9.929488858   3.510600399   0.000000000    0   0   0
Fe       8.274575906   2.340400266   2.026984232    0   0   0
Fe       6.639302562   1.158743654   4.043308582
Fe       4.991367278   0.074933996   6.025775297
Fe       9.934208514   3.488554586   4.043334768
Fe       8.453494221   2.088074455   5.983336663
Fe       7.447113858   3.510600399   0.000000000    0   0   0
Fe       9.102037953   1.170200133   0.000000000    0   0   0
Fe       5.792200906   2.340400266   2.026984232    0   0   0
Fe       7.447125000   0.000000000   2.026984232    0   0   0
Fe       7.447518050   3.510551064   4.056398222
Fe       9.131097811   1.129543708   3.999832898
Fe       5.879982645   2.402215501   6.013682337
Fe      10.762753915   9.272048349   6.030210003
Fe       3.309814764   5.851000664   0.000000000    0   0   0
Fe       1.654901811   4.680800531   2.026984232    0   0   0
Fe       6.619640670   8.191400930   0.000000000    0   0   0
Fe       4.964727717   7.021200797   2.026984232    0   0   0
Fe       3.285524587   5.853872747   4.028767562
Fe      11.505679356   4.681131115   6.025800607
Fe       6.625426009   8.215559066   4.028776443
Fe       4.939027382   7.058103975   6.019106596
Fe       4.137265670   8.191400930   0.000000000    0   0   0
Fe       5.792189764   5.851000664   0.000000000    0   0   0
Fe       2.482352717   7.021200797   2.026984232    0   0   0
Fe       4.137276811   4.680800531   2.026984232    0   0   0
Fe       4.137439188   8.191582303   4.017350839
Fe       5.763373508   5.892187507   4.000137653
Fe      12.381581519   7.000103334   6.025658501
Fe       4.054811508   4.716640182   6.030748849
Fe       8.274564764   5.851000664   0.000000000    0   0   0
Fe       6.619651811   4.680800531   2.026984232    0   0   0
Fe      11.584390670   8.191400930   0.000000000    0   0   0
Fe       9.929477717   7.021200797   2.026984232    0   0   0
Fe       8.254948549   5.862697835   4.043733000
Fe       6.441543320   4.933454504   5.983290747
Fe      11.578990646   8.167600292   4.028549373
Fe       9.903248987   6.947284111   6.025455020
Fe       9.102015670   8.191400930   0.000000000    0   0   0
Fe      10.756939764   5.851000664   0.000000000    0   0   0
Fe       7.447102717   7.021200797   2.026984232    0   0   0
Fe       9.102026811   4.680800531   2.026984232    0   0   0
Fe       9.102116261   8.191606172   4.046836225
Fe      10.732492264   5.834045949   4.032174115
Fe       7.441401158   7.111504356   6.030814423
Fe       9.015299524   4.619130299   6.013769432
N        7.447537372   3.510796170   6.362797461
End final coordinates

     Writing output data file Fe_N_paper_480c_ESM_p25.save/

     General routines

     Parallel routines

   This run was terminated on:   4:14:28  11Jun2022

   JOB DONE.