     Program PWSCF v.6.4.1 starts on  1Jun2022 at 15: 8:24

     K-points division:     npool     =       8
     R & G space division:  proc/nbgrp/npool/nimage =      20
     Waiting for input...
     Reading input from standard input
Warning: card &CELL ignored
Warning: card / ignored

     Current dimensions of program PWSCF are:
     Max number of different atomic species (ntypx) = 10
     Max number of k-points (npk) =  40000
     Max angular momentum in pseudopotentials (lmaxx) =  3

     IMPORTANT: XC functional enforced from input :
     Exchange-correlation      = PBE ( 1  4  3  4 0 0)
     Any further DFT definition will be discarded
     Please, verify this is what you really want

               file Fe.pbe-spn-kjpaw_psl.0.2.1.UPF: wavefunction(s)  3D renormalized

     Parameters for Dispersion (Grimme-D2) Correction:
       atom      VdW radius       C_6

        Fe         2.952        374.666

     bravais-lattice index     =            0
     lattice parameter (alat)  =      18.7640  a.u.
     unit-cell volume          =   16360.3163 (a.u.)^3
     number of atoms/cell      =           64
     number of atomic types    =            1
     number of electrons       =      1024.00
     number of Kohn-Sham states=          614
     kinetic-energy cutoff     =      60.0000  Ry
     charge density cutoff     =     480.0000  Ry
     convergence threshold     =      1.0E-08
     mixing beta               =       0.2000
     number of iterations used =           10  local-TF  mixing
     Exchange-correlation      = PBE ( 1  4  3  4 0 0)
     nstep                     =           50

     celldm(1)=  18.764036  celldm(2)=   0.000000  celldm(3)=   0.000000
     celldm(4)=   0.000000  celldm(5)=   0.000000  celldm(6)=   0.000000

     crystal axes: (cart. coord. in units of alat)
               a(1) = (   1.000000   0.000000   0.000000 )
               a(2) = (   0.333330   0.942807   0.000000 )
               a(3) = (   0.000000   0.000000   2.626577 )

     reciprocal axes: (cart. coord. in units 2 pi/alat)
               b(1) = (  1.000000 -0.353551  0.000000 )
               b(2) = (  0.000000  1.060663  0.000000 )
               b(3) = (  0.000000  0.000000  0.380724 )

     PseudoPot. # 1 for Fe read from file:
     ../SSSP/Fe.pbe-spn-kjpaw_psl.0.2.1.UPF
     MD5 check sum: e86618425769142926afa95317d90200
     Pseudo is Projector augmented-wave + core cor, Zval = 16.0
     Generated using "atomic" code by A. Dal Corso v.5.0.99 svn rev. 10869
     Shape of augmentation charge: PSQ
     Using radial grid of 1191 points,  6 beta functions with:
                l(1) =   0
                l(2) =   0
                l(3) =   1
                l(4) =   1
                l(5) =   2
                l(6) =   2
     Q(r) pseudized with 0 coefficients

     atomic species   valence    mass     pseudopotential
        Fe            16.00    55.84500     Fe( 1.00)

     Starting magnetic structure
     atomic species   magnetization
        Fe           0.100

     No symmetry found

   Cartesian axes

     site n.     atom                  positions (alat units)
         1           Fe  tau(   1) = (   0.1666663   0.1178509   0.0000000  )
         2           Fe  tau(   2) = (   0.0000000   0.0000000   0.2041376  )
         3           Fe  tau(   3) = (   0.4999989   0.3535526   0.0000000  )
         4           Fe  tau(   4) = (   0.3333326   0.2357017   0.2041376  )
         5           Fe  tau(   5) = (   0.1686230   0.1179829   0.4050445  )
         6           Fe  tau(   6) = (   0.3342103   0.9416755   0.6029308  )
         7           Fe  tau(   7) = (   0.5009022   0.3550045   0.4066992  )
         8           Fe  tau(   8) = (   0.3393326   0.2351643   0.6044805  )
         9           Fe  tau(   9) = (   0.2499989   0.3535526   0.0000000  )
        10           Fe  tau(  10) = (   0.4166663   0.1178509   0.0000000  )
        11           Fe  tau(  11) = (   0.0833326   0.2357017   0.2041376  )
        12           Fe  tau(  12) = (   0.2500000   0.0000000   0.2041376  )
        13           Fe  tau(  13) = (   0.2499889   0.3536657   0.4067255  )
        14           Fe  tau(  14) = (   0.4191296   0.1197270   0.4058587  )
        15           Fe  tau(  15) = (   0.0867593   0.2337124   0.6031147  )
        16           Fe  tau(  16) = (   0.2513067   0.0011502   0.6041391  )
        17           Fe  tau(  17) = (   0.6666663   0.1178509   0.0000000  )
        18           Fe  tau(  18) = (   0.5000000   0.0000000   0.2041376  )
        19           Fe  tau(  19) = (   0.9999989   0.3535526   0.0000000  )
        20           Fe  tau(  20) = (   0.8333326   0.2357017   0.2041376  )
        21           Fe  tau(  21) = (   0.6682130   0.1184071   0.4067255  )
        22           Fe  tau(  22) = (   0.5012700   0.0061660   0.6044805  )
        23           Fe  tau(  23) = (   0.9990789   0.3523364   0.4066992  )
        24           Fe  tau(  24) = (   0.8424893   0.2229927   0.6009609  )
        25           Fe  tau(  25) = (   0.7499989   0.3535526   0.0000000  )
        26           Fe  tau(  26) = (   0.9166663   0.1178509   0.0000000  )
        27           Fe  tau(  27) = (   0.5833326   0.2357017   0.2041376  )
        28           Fe  tau(  28) = (   0.7500000   0.0000000   0.2041376  )
        29           Fe  tau(  29) = (   0.7499855   0.3536846   0.4022603  )
        30           Fe  tau(  30) = (   0.9186130   0.1151827   0.4029958  )
        31           Fe  tau(  31) = (   0.5926559   0.2425842   0.6081315  )
        32           Fe  tau(  32) = (   1.0841970   0.9390922   0.6031147  )
        33           Fe  tau(  33) = (   0.3333315   0.5892543   0.0000000  )
        34           Fe  tau(  34) = (   0.1666652   0.4714034   0.2041376  )
        35           Fe  tau(  35) = (   0.6666640   0.8249560   0.0000000  )
        36           Fe  tau(  36) = (   0.4999978   0.7071052   0.2041376  )
        37           Fe  tau(  37) = (   0.3313348   0.5893486   0.4050445  )
        38           Fe  tau(  38) = (   1.1606152   0.4723368   0.6044805  )
        39           Fe  tau(  39) = (   0.6673207   0.8269265   0.4050445  )
        40           Fe  tau(  40) = (   0.4990111   0.7086137   0.6029834  )
        41           Fe  tau(  41) = (   0.4166640   0.8249560   0.0000000  )
        42           Fe  tau(  42) = (   0.5833315   0.5892543   0.0000000  )
        43           Fe  tau(  43) = (   0.2499978   0.7071052   0.2041376  )
        44           Fe  tau(  44) = (   0.4166652   0.4714034   0.2041376  )
        45           Fe  tau(  45) = (   0.4166474   0.8250503   0.4047293  )
        46           Fe  tau(  46) = (   0.5813348   0.5921487   0.4029958  )
        47           Fe  tau(  47) = (   1.2485844   0.7063321   0.6041391  )
        48           Fe  tau(  48) = (   0.4132018   0.4737699   0.6030884  )
        49           Fe  tau(  49) = (   0.8333315   0.5892543   0.0000000  )
        50           Fe  tau(  50) = (   0.6666652   0.4714034   0.2041376  )
        51           Fe  tau(  51) = (   1.1666640   0.8249560   0.0000000  )
        52           Fe  tau(  52) = (   0.9999978   0.7071052   0.2041376  )
        53           Fe  tau(  53) = (   0.8317515   0.5889715   0.4066992  )
        54           Fe  tau(  54) = (   0.6574885   0.4845933   0.6009609  )
        55           Fe  tau(  55) = (   1.1659707   0.8232213   0.4050708  )
        56           Fe  tau(  56) = (   0.9986444   0.7014389   0.6044543  )
        57           Fe  tau(  57) = (   0.9166640   0.8249560   0.0000000  )
        58           Fe  tau(  58) = (   1.0833315   0.5892543   0.0000000  )
        59           Fe  tau(  59) = (   0.7499978   0.7071052   0.2041376  )
        60           Fe  tau(  60) = (   0.9166652   0.4714034   0.2041376  )
        61           Fe  tau(  61) = (   0.9166507   0.8250880   0.4067255  )
        62           Fe  tau(  62) = (   1.0808448   0.5876233   0.4058587  )
        63           Fe  tau(  63) = (   0.7490544   0.7113384   0.6030884  )
        64           Fe  tau(  64) = (   0.9073419   0.4651149   0.6080264  )

     number of k points=    10  Methfessel-Paxton smearing, width (Ry)=  0.0100
                       cart. coord. in units 2pi/alat
        k(    1) = (   0.0000000   0.0000000   0.0000000), wk =   0.0625000
        k(    2) = (   0.0000000   0.2651656   0.0000000), wk =   0.1250000
        k(    3) = (   0.0000000  -0.5303313   0.0000000), wk =   0.0625000
        k(    4) = (   0.2500000  -0.0883878   0.0000000), wk =   0.1250000
        k(    5) = (   0.2500000   0.1767779   0.0000000), wk =   0.1250000
        k(    6) = (   0.2500000  -0.6187190   0.0000000), wk =   0.1250000
        k(    7) = (   0.2500000  -0.3535534   0.0000000), wk =   0.1250000
        k(    8) = (  -0.5000000   0.1767755   0.0000000), wk =   0.0625000
        k(    9) = (  -0.5000000   0.4419412   0.0000000), wk =   0.1250000
        k(   10) = (  -0.5000000  -0.3535558   0.0000000), wk =   0.0625000

     Check: negative core charge=   -0.000039

     Initial potential from superposition of free atoms

     starting charge 1023.97194, renormalised to 1024.00000

     negative rho (up, down):  2.482E-02 2.533E-03
     Starting wfcs are  832 randomized atomic wfcs
     Checking if some PAW data can be deallocated...

     Self-consistent Calculation

     iteration #  1     ecut=    60.00 Ry     beta= 0.20
     Davidson diagonalization with overlap
     ethr =  1.00E-04,  avg # of iterations =  8.1

     negative rho (up, down):  1.243E-02 4.269E-03

     total energy              =  -21072.17791604 Ry
     Harris-Foulkes estimate   =  -21072.62466816 Ry
     estimated scf accuracy    <      29.29739704 Ry

     total magnetization       =   135.21 Bohr mag/cell
     absolute magnetization    =   135.46 Bohr mag/cell

[...]

     Magnetic moment per site:
     atom:    1    charge:   14.0955    magn:    2.6483    constr:    0.0000
     atom:    2    charge:   14.1578    magn:    2.3886    constr:    0.0000
     atom:    3    charge:   14.0956    magn:    2.6484    constr:    0.0000
     atom:    4    charge:   14.1501    magn:    2.4355    constr:    0.0000
     atom:    5    charge:   14.1689    magn:    2.3968    constr:    0.0000
     atom:    6    charge:   14.1135    magn:    2.6109    constr:    0.0000
     atom:    7    charge:   14.1600    magn:    2.4227    constr:    0.0000
     atom:    8    charge:   14.1049    magn:    2.6405    constr:    0.0000
     atom:    9    charge:   14.0961    magn:    2.6444    constr:    0.0000
     atom:   10    charge:   14.0952    magn:    2.6514    constr:    0.0000
     atom:   11    charge:   14.1511    magn:    2.4319    constr:    0.0000
     atom:   12    charge:   14.1541    magn:    2.4206    constr:    0.0000
     atom:   13    charge:   14.1585    magn:    2.4212    constr:    0.0000
     atom:   14    charge:   14.1713    magn:    2.3897    constr:    0.0000
     atom:   15    charge:   14.1180    magn:    2.6005    constr:    0.0000
     atom:   16    charge:   14.1110    magn:    2.6198    constr:    0.0000
     atom:   17    charge:   14.0956    magn:    2.6484    constr:    0.0000
[...]
     atom:   52    charge:   14.1518    magn:    2.4259    constr:    0.0000
     atom:   53    charge:   14.1631    magn:    2.4032    constr:    0.0000
     atom:   54    charge:   14.0718    magn:    2.5986    constr:    0.0000
     atom:   55    charge:   14.1633    magn:    2.4028    constr:    0.0000
     atom:   56    charge:   14.1032    magn:    2.6212    constr:    0.0000
     atom:   57    charge:   14.0957    magn:    2.6469    constr:    0.0000
     atom:   58    charge:   14.0957    magn:    2.6469    constr:    0.0000
     atom:   59    charge:   14.1518    magn:    2.4264    constr:    0.0000
     atom:   60    charge:   14.1518    magn:    2.4262    constr:    0.0000
     atom:   61    charge:   14.1637    magn:    2.4028    constr:    0.0000
     atom:   62    charge:   14.1625    magn:    2.4020    constr:    0.0000
     atom:   63    charge:   14.1108    magn:    2.6197    constr:    0.0000
     atom:   64    charge:   14.0714    magn:    2.6210    constr:    0.0000

     End of self-consistent calculation

 ------ SPIN UP ------------

[...]

 ------ SPIN DOWN ----------

[...]

          k = 0.2500-0.3536 0.0000 (128397 PWs)   bands (ev):

[...]

          k =-0.5000-0.3536 0.0000 (128560 PWs)   bands (ev):

   -82.9383 -82.9382 -82.9300 -82.9299 -82.9038 -82.9037 -82.9036 -82.9036
   -82.8981 -82.8981 -82.8969 -82.8968 -82.8918 -82.8917 -82.8916 -82.8916
   -82.8873 -82.8872 -82.8775 -82.8775 -82.8773 -82.8771 -82.8771 -82.8770
   -82.8750 -82.8750 -82.8749 -82.8748 -82.8533 -82.8533 -82.8532 -82.8532
   -82.8409 -82.8409 -82.8405 -82.8405 -82.8372 -82.8372 -82.8371 -82.8371
   -82.8187 -82.8187 -82.8186 -82.8186 -82.8186 -82.8185 -82.8185 -82.8184
   -82.8153 -82.8152 -82.8152 -82.8152 -82.8149 -82.8148 -82.8148 -82.8148
   -82.7966 -82.7966 -82.7965 -82.7964 -82.7934 -82.7934 -82.7931 -82.7931
   -49.1893 -49.1892 -49.1891 -49.1891 -49.1793 -49.1791 -49.1790 -49.1790
   -49.1768 -49.1768 -49.1726 -49.1724 -49.1713 -49.1712 -49.1643 -49.1642
   -49.1641 -49.1640 -49.1559 -49.1558 -49.1557 -49.1556 -49.1481 -49.1480
   -49.1354 -49.1354 -49.1353 -49.1353 -49.1291 -49.1291 -49.1123 -49.1122
   -49.1074 -49.1074 -49.0988 -49.0987 -49.0987 -49.0986 -49.0971 -49.0971
   -49.0971 -49.0970 -49.0892 -49.0891 -49.0890 -49.0890 -49.0890 -49.0890
   -49.0889 -49.0889 -49.0852 -49.0851 -49.0803 -49.0802 -49.0779 -49.0779
   -49.0753 -49.0753 -49.0734 -49.0733 -49.0733 -49.0733 -49.0377 -49.0377
   -49.0264 -49.0264 -49.0263 -49.0263 -49.0253 -49.0252 -49.0150 -49.0149
   -49.0147 -49.0146 -48.9976 -48.9976 -48.9793 -48.9793 -48.9793 -48.9793
   -48.9789 -48.9788 -48.9783 -48.9782 -48.9685 -48.9685 -48.9685 -48.9685
   -48.9664 -48.9664 -48.9664 -48.9663 -48.9510 -48.9510 -48.9490 -48.9490
   -48.9431 -48.9431 -48.9430 -48.9430 -48.9361 -48.9361 -48.9361 -48.9361
   -48.9360 -48.9360 -48.9254 -48.9253 -48.9253 -48.9252 -48.9216 -48.9216
   -48.9136 -48.9136 -48.9097 -48.9097 -48.9004 -48.9004 -48.8995 -48.8994
   -48.8994 -48.8993 -48.8927 -48.8926 -48.8848 -48.8848 -48.8834 -48.8834
   -48.8771 -48.8771 -48.8750 -48.8750 -48.8702 -48.8701 -48.8701 -48.8701
   -48.8679 -48.8679 -48.8674 -48.8673 -48.8673 -48.8672 -48.8629 -48.8628
   -48.8628 -48.8628 -48.8607 -48.8607 -48.8542 -48.8541 -48.8527 -48.8527
   -48.8503 -48.8503 -48.8477 -48.8477 -48.8451 -48.8450 -48.8448 -48.8448
   -48.8446 -48.8446 -48.8446 -48.8445 -48.8429 -48.8429 -48.8381 -48.8381
   -48.8381 -48.8380 -48.8330 -48.8330 -48.8317 -48.8316 -48.8316 -48.8316
   -48.8314 -48.8314 -48.8314 -48.8313 -48.8215 -48.8214 -48.8168 -48.8167
   -48.8167 -48.8167 -48.8157 -48.8156 -48.8121 -48.8121 -48.8114 -48.8113
    -4.8930  -4.8929  -4.3078  -4.3077  -3.5984  -3.5984  -3.0551  -3.0550
    -2.3049  -2.3049  -2.3048  -2.3047  -1.8937  -1.8935  -1.4556  -1.4555
    -1.4547  -1.4547  -1.4547  -1.4546  -1.3578  -1.3578  -1.3220  -1.3220
    -1.3219  -1.3218  -0.8943  -0.8942  -0.8932  -0.8931  -0.8931  -0.8931
    -0.6832  -0.6832  -0.4243  -0.4242  -0.3901  -0.3900  -0.3899  -0.3897
    -0.3329  -0.3327  -0.2891  -0.2891  -0.2891  -0.2889  -0.1319  -0.1318
    -0.1208  -0.1207  -0.1014  -0.1012   0.1431   0.1434   0.1616   0.1616
     0.1617   0.1617   0.3813   0.3815   0.4319   0.4321   0.4817   0.4818
     0.5887   0.5889   0.6688   0.6688   0.6693   0.6693   0.6788   0.6788
     0.6947   0.6951   0.7026   0.7030   0.8029   0.8029   0.8030   0.8031
     0.8085   0.8087   0.8088   0.8089   0.8155   0.8155   0.8156   0.8157
     1.0285   1.0286   1.0353   1.0354   1.1674   1.1676   1.1678   1.1679
     1.1828   1.1830   1.2311   1.2312   1.2313   1.2314   1.2412   1.2413
     1.2428   1.2430   1.2687   1.2687   1.2689   1.2690   1.3009   1.3009
     1.3011   1.3014   1.3060   1.3060   1.3060   1.3060   1.3105   1.3108
     1.3559   1.3561   1.3562   1.3564   1.4149   1.4150   1.4151   1.4152
     1.4153   1.4153   1.4156   1.4157   1.4190   1.4194   1.4338   1.4342
     1.4931   1.4933   1.6259   1.6261   1.6881   1.6882   1.6883   1.6883
     1.7092   1.7095   1.7475   1.7476   1.7477   1.7478   1.8559   1.8560
     1.8709   1.8709   1.8710   1.8711   1.8745   1.8748   1.9267   1.9270
     1.9345   1.9346   1.9852   1.9854   2.1185   2.1186   2.1294   2.1294
     2.2047   2.2049   2.2078   2.2079   2.2268   2.2270   2.2270   2.2271
     2.2357   2.2358   2.2445   2.2446   2.3243   2.3244   2.3244   2.3244
     2.3492   2.3494   2.5993   2.5994   2.6722   2.6728   2.7148   2.7154
     2.7834   2.7835   2.9642   2.9644   2.9842   2.9844   3.0341   3.0343
     3.1058   3.1060   3.1437   3.1438   3.1441   3.1443   3.2221   3.2224
     3.2234   3.2234   3.2663   3.2663   3.2775   3.2777   3.3803   3.3804
     3.3831   3.3832   3.3835   3.3836   3.4833   3.4833   3.4836   3.4836
[...]
     3.6899   3.6900   3.7331   3.7331   3.7848   3.7851   3.8415   3.8416
     3.9221   3.9222   3.9258   3.9259   3.9260   3.9261   3.9285   3.9288
     3.9452   3.9452   3.9716   3.9716   3.9836   3.9837   3.9839   3.9840
     3.9885   3.9885   3.9886   3.9886   4.0137   4.0138   4.0629   4.0630
     4.0633   4.0634   4.0650   4.0653   4.0864   4.0867   4.0897   4.0904
     4.0940   4.0943   4.1251   4.1252   4.1382   4.1383   4.1589   4.1589
     4.1590   4.1590   4.1715   4.1716   4.1741   4.1742   4.1743   4.1744
     4.2145   4.2146   4.2803   4.2803   4.2956   4.2957   4.3170   4.3174
     4.3271   4.3272   4.3605   4.3605   4.3606   4.3607   4.3615   4.3615
     4.3615   4.3616   4.3759   4.3760   4.3794   4.3795   4.3795   4.3796
     4.3868   4.3870   4.4338   4.4339   4.4411   4.4412   4.4412   4.4414
     4.4553   4.4554   4.4637   4.4640   4.4640   4.4641   4.5541   4.5543
     4.5581   4.5581   4.5582   4.5584   4.7537   4.7538   4.7707   4.7707
     4.9833   4.9833   4.9833   4.9834   5.0549   5.0550   5.0553   5.0553
     5.0724   5.0724   5.0724   5.0725   5.0941   5.0944

     the Fermi energy is     2.2152 ev

!    total energy              =  -21072.22071562 Ry
     Harris-Foulkes estimate   =  -21072.22071543 Ry
     estimated scf accuracy    <          9.7E-11 Ry

     total all-electron energy =   -162915.198988 Ry

     The total energy is the sum of the following terms:

     one-electron contribution = -166986.81197382 Ry
     hartree contribution      =   83571.17064617 Ry
     xc contribution           =   -2228.22947536 Ry
     ewald contribution        =   69446.44675313 Ry
     Dispersion Correction     =      -1.37062179 Ry
     one-center paw contrib.   =   -4873.42576822 Ry
     smearing contrib. (-TS)   =      -0.00027572 Ry

     total magnetization       =   162.92 Bohr mag/cell
     absolute magnetization    =   169.21 Bohr mag/cell

     convergence has been achieved in   9 iterations

     negative rho (up, down):  2.539E-02 1.697E-02

     Forces acting on atoms (cartesian axes, Ry/au):

     atom    1 type  1   force =     0.00000908    0.00000959    0.00937455
     atom    2 type  1   force =    -0.00000725    0.00003075   -0.00939763
     atom    3 type  1   force =    -0.00000156   -0.00000619    0.00948496
     atom    4 type  1   force =    -0.00001431   -0.00002606   -0.00944645
     atom    5 type  1   force =    -0.00006157    0.00002763    0.00000254
     atom    6 type  1   force =    -0.00000221   -0.00001131   -0.00005525
     atom    7 type  1   force =    -0.00002124    0.00002760   -0.00003070
     atom    8 type  1   force =     0.00003664   -0.00003163   -0.00001533
     atom    9 type  1   force =    -0.00001569    0.00002368    0.00945683
     atom   10 type  1   force =     0.00001665   -0.00001804    0.00945827
     atom   11 type  1   force =    -0.00000433   -0.00006656   -0.00937909
     atom   12 type  1   force =    -0.00007783    0.00005589   -0.00943631
     atom   13 type  1   force =    -0.00000012   -0.00001618    0.00007046
     atom   14 type  1   force =    -0.00001548   -0.00001182   -0.00002029
     atom   15 type  1   force =    -0.00001105   -0.00001429    0.00001830
     atom   16 type  1   force =    -0.00008838   -0.00006737   -0.00003450
     atom   17 type  1   force =     0.00000362   -0.00001510    0.00942458
     atom   18 type  1   force =    -0.00001102    0.00004188   -0.00944596
     atom   19 type  1   force =     0.00001446   -0.00000789    0.00942370
     atom   20 type  1   force =     0.00010392   -0.00012684   -0.00937261
     atom   21 type  1   force =     0.00002476   -0.00003864   -0.00003059
     atom   22 type  1   force =    -0.00000320    0.00002407   -0.00002084
     atom   23 type  1   force =     0.00001632   -0.00004035   -0.00003004
     atom   24 type  1   force =    -0.00002450    0.00002126    0.00008170
     atom   25 type  1   force =     0.00001596   -0.00002090    0.00949859
     atom   26 type  1   force =     0.00000778   -0.00000841    0.00936881
     atom   27 type  1   force =     0.00004571   -0.00005064   -0.00937223
     atom   28 type  1   force =     0.00008234   -0.00000380   -0.00937528
     atom   29 type  1   force =     0.00000306   -0.00000943   -0.00001018
     atom   30 type  1   force =     0.00002796   -0.00004923   -0.00014869
     atom   31 type  1   force =     0.00002628    0.00000599   -0.00013682
     atom   32 type  1   force =     0.00000296   -0.00000351    0.00001691
     atom   33 type  1   force =    -0.00001163    0.00001752    0.00941954
     atom   34 type  1   force =    -0.00001363    0.00003718   -0.00944730
     atom   35 type  1   force =    -0.00001089    0.00001937    0.00941880
     atom   36 type  1   force =    -0.00007293    0.00012317   -0.00937929
     atom   37 type  1   force =     0.00006536   -0.00003981   -0.00000386
     atom   38 type  1   force =    -0.00003569    0.00000280   -0.00002273
     atom   39 type  1   force =     0.00000861   -0.00008114   -0.00000469
     atom   40 type  1   force =    -0.00000529   -0.00000579   -0.00005937
     atom   41 type  1   force =    -0.00001050    0.00001679    0.00938480
     atom   42 type  1   force =    -0.00001318    0.00002183    0.00949693
     atom   43 type  1   force =    -0.00000862    0.00010505   -0.00943530
     atom   44 type  1   force =    -0.00004001    0.00006996   -0.00937250
     atom   45 type  1   force =    -0.00000469   -0.00000449    0.00003417
     atom   46 type  1   force =    -0.00003528    0.00004229   -0.00013966
     atom   47 type  1   force =     0.00007936    0.00005078   -0.00003392
     atom   48 type  1   force =     0.00001234   -0.00000358    0.00003005
     atom   49 type  1   force =     0.00000994    0.00000124    0.00948703
     atom   50 type  1   force =    -0.00001340    0.00003913   -0.00936666
     atom   51 type  1   force =    -0.00000880   -0.00000443    0.00937644
     atom   52 type  1   force =     0.00004835    0.00001927   -0.00944349
     atom   53 type  1   force =    -0.00002719    0.00001959   -0.00003010
     atom   54 type  1   force =     0.00002651   -0.00005131    0.00006700
     atom   55 type  1   force =    -0.00001164    0.00006088    0.00000173
     atom   56 type  1   force =     0.00000583   -0.00005431   -0.00001514
     atom   57 type  1   force =    -0.00001462    0.00002418    0.00945466
     atom   58 type  1   force =     0.00001402   -0.00002130    0.00945763
     atom   59 type  1   force =    -0.00003484    0.00007818   -0.00937293
     atom   60 type  1   force =     0.00005352   -0.00004603   -0.00937427
     atom   61 type  1   force =     0.00000557   -0.00000980    0.00007124
     atom   62 type  1   force =     0.00000736    0.00000468   -0.00001717
     atom   63 type  1   force =    -0.00001322   -0.00002180    0.00002904
     atom   64 type  1   force =    -0.00002846   -0.00003426   -0.00013212

     Total force =     0.000434     Total SCF correction =     0.000035

     bfgs converged in  23 scf cycles and  22 bfgs steps
     (criteria: energy <  7.3E-07 Ry, force <  3.9E-04 Ry/Bohr)

     End of BFGS Geometry Optimization

     Final energy   =  -21072.2207156183 Ry
Begin final coordinates

ATOMIC_POSITIONS (angstrom)
Fe       1.654912953   1.170200133   0.000000000    0   0   0
Fe       0.000000000   0.000000000   2.026984232    0   0   0
Fe       4.964738858   3.510600399   0.000000000    0   0   0
Fe       3.309825906   2.340400266   2.026984232    0   0   0
Fe       1.655131513   1.170255800   4.026893789
Fe       3.310185890   9.361715274   6.004812258
Fe       4.964954072   3.510645742   4.026864800
Fe       3.309968878   2.341373774   6.004558667
Fe       2.482363858   3.510600399   0.000000000    0   0   0
Fe       4.137287953   1.170200133   0.000000000    0   0   0
Fe       0.827450906   2.340400266   2.026984232    0   0   0
Fe       2.482375000   0.000000000   2.026984232    0   0   0
Fe       2.482431022   3.510784594   4.026382395
Fe       4.137423723   1.170575205   4.026844020
Fe       0.827793995   2.340671494   6.004582483
Fe       2.483081194   0.000914643   6.004972519
Fe       6.619662953   1.170200133   0.000000000    0   0   0
Fe       4.964750000   0.000000000   2.026984232    0   0   0
Fe       9.929488858   3.510600399   0.000000000    0   0   0
Fe       8.274575906   2.340400266   2.026984232    0   0   0
Fe       6.619907777   1.170455049   4.027049583
Fe       4.965211570   0.000234207   6.004131526
Fe       9.929608704   3.510738088   4.027034307
Fe       8.275000021   2.340478798   6.004316858
Fe       7.447113858   3.510600399   0.000000000    0   0   0
Fe       9.102037953   1.170200133   0.000000000    0   0   0
Fe       5.792200906   2.340400266   2.026984232    0   0   0
Fe       7.447125000   0.000000000   2.026984232    0   0   0
Fe       7.447420479   3.510611505   4.026647087
Fe       9.102346018   1.170211882   4.027134491
Fe       5.792401460   2.340819564   6.005512548
Fe      10.757173775   9.361831542   6.004597452
Fe       3.309814764   5.851000664   0.000000000    0   0   0
Fe       1.654901811   4.680800531   2.026984232    0   0   0
Fe       6.619640670   8.191400930   0.000000000    0   0   0
Fe       4.964727717   7.021200797   2.026984232    0   0   0
Fe       3.309526336   5.851690833   4.026744262
Fe      11.584679108   4.680855349   6.004144765
Fe       6.619499617   8.192215343   4.026748908
Fe       4.964546232   7.022148233   6.005235814
Fe       4.137265670   8.191400930   0.000000000    0   0   0
Fe       5.792189764   5.851000664   0.000000000    0   0   0
Fe       2.482352717   7.021200797   2.026984232    0   0   0
Fe       4.137276811   4.680800531   2.026984232    0   0   0
Fe       4.137270576   8.191845130   4.026814179
Fe       5.792069812   5.851617064   4.026946478
Fe      12.411409722   7.021258406   6.004962008
Fe       4.137385969   4.681560913   6.004055304
Fe       8.274564764   5.851000664   0.000000000    0   0   0
Fe       6.619651811   4.680800531   2.026984232    0   0   0
Fe      11.584390670   8.191400930   0.000000000    0   0   0
Fe       9.929477717   7.021200797   2.026984232    0   0   0
Fe       8.274868094   5.851126765   4.026848823
Fe       6.619665354   4.681477222   6.003380070
Fe      11.584678547   8.191514616   4.026910800
Fe       9.929155900   7.021837365   6.004536714
Fe       9.102015670   8.191400930   0.000000000    0   0   0
Fe      10.756939764   5.851000664   0.000000000    0   0   0
Fe       7.447102717   7.021200797   2.026984232    0   0   0
Fe       9.102026811   4.680800531   2.026984232    0   0   0
Fe       9.102234964   8.191714800   4.026377367
Fe      10.756978908   5.851283372   4.026838019
Fe       7.446997598   7.021815629   6.004046457
Fe       9.102218468   4.681205756   6.005444946
End final coordinates

     Writing output data file Fe_paper_480c.save/

     General routines

     Parallel routines

   This run was terminated on:  10: 1:27   2Jun2022

   JOB DONE.