     Program PWSCF v.6.4.1 starts on 12Jun2022 at 21: 1:26

     K-points division:     npool     =       8
     R & G space division:  proc/nbgrp/npool/nimage =      20
     Waiting for input...
     Reading input from standard input
Warning: card &CELL ignored
Warning: card / ignored

     Current dimensions of program PWSCF are:
     Max number of different atomic species (ntypx) = 10
     Max number of k-points (npk) =  40000
     Max angular momentum in pseudopotentials (lmaxx) =  3

     IMPORTANT: XC functional enforced from input :
     Exchange-correlation      = PBE ( 1  4  3  4 0 0)
     Any further DFT definition will be discarded
     Please, verify this is what you really want

               file Fe.pbe-spn-kjpaw_psl.0.2.1.UPF: wavefunction(s)  3D renormalized

     Parameters for Dispersion (Grimme-D2) Correction:
       atom      VdW radius       C_6

        Fe         2.952        374.666
        N          2.640         42.670
        H          1.892          4.857

     bravais-lattice index     =            0
     lattice parameter (alat)  =      18.7640  a.u.
     unit-cell volume          =   16360.3163 (a.u.)^3
     number of atoms/cell      =           66
     number of atomic types    =            3
     number of electrons       =      1030.00
     number of Kohn-Sham states=          618
     kinetic-energy cutoff     =      60.0000  Ry
     charge density cutoff     =     480.0000  Ry
     convergence threshold     =      1.0E-08
     mixing beta               =       0.2000
     number of iterations used =           10  local-TF  mixing
     Exchange-correlation      = PBE ( 1  4  3  4 0 0)
     nstep                     =           50

     Effective Screening Medium Method
     Boundary Conditions: Metal-Slab-Metal
     field strength                   =    -0.01 Ry/a.u.
     grid points for fit at edges     =        4

     celldm(1)=  18.764036  celldm(2)=   0.000000  celldm(3)=   0.000000
     celldm(4)=   0.000000  celldm(5)=   0.000000  celldm(6)=   0.000000

     crystal axes: (cart. coord. in units of alat)
               a(1) = (   1.000000   0.000000   0.000000 )
               a(2) = (   0.333330   0.942807   0.000000 )
               a(3) = (   0.000000   0.000000   2.626577 )

     reciprocal axes: (cart. coord. in units 2 pi/alat)
               b(1) = (  1.000000 -0.353551  0.000000 )
               b(2) = (  0.000000  1.060663  0.000000 )
               b(3) = (  0.000000  0.000000  0.380724 )

     PseudoPot. # 1 for Fe read from file:
     ../../SSSP/Fe.pbe-spn-kjpaw_psl.0.2.1.UPF
     MD5 check sum: e86618425769142926afa95317d90200
     Pseudo is Projector augmented-wave + core cor, Zval = 16.0
     Generated using "atomic" code by A. Dal Corso v.5.0.99 svn rev. 10869
     Shape of augmentation charge: PSQ
     Using radial grid of 1191 points,  6 beta functions with:
                l(1) =   0
                l(2) =   0
                l(3) =   1
                l(4) =   1
                l(5) =   2
                l(6) =   2
     Q(r) pseudized with 0 coefficients

     PseudoPot. # 2 for N  read from file:
     ../../SSSP/N.pbe-n-radius_5.UPF
     MD5 check sum: 16739722b17309cd8fe442a2ace49922
     Pseudo is Ultrasoft + core correction, Zval =  5.0
     Generated using "atomic" code by A. Dal Corso v.5.1
     Using radial grid of 1085 points,  4 beta functions with:
                l(1) =   0
                l(2) =   0
                l(3) =   1
                l(4) =   1
     Q(r) pseudized with 0 coefficients

     PseudoPot. # 3 for H  read from file:
     ../../SSSP/H.pbe-rrkjus_psl.1.0.0.UPF
     MD5 check sum: f52b6d4d1c606e5624b1dc7b2218f220
     Pseudo is Ultrasoft, Zval =  1.0
     Generated using "atomic" code by A. Dal Corso v.5.1
     Using radial grid of  929 points,  2 beta functions with:
                l(1) =   0
                l(2) =   0
     Q(r) pseudized with 0 coefficients

     atomic species   valence    mass     pseudopotential
        Fe            16.00    55.84500     Fe( 1.00)
        N              5.00    14.00700     N ( 1.00)
        H              1.00     1.00800     H ( 1.00)

     Starting magnetic structure
     atomic species   magnetization
        Fe           0.100
        N            0.100
        H            0.100

     No symmetry found

   Cartesian axes

     site n.     atom                  positions (alat units)
         1           Fe  tau(   1) = (   0.1666663   0.1178509   0.0000000  )
         2           Fe  tau(   2) = (   0.0000000   0.0000000   0.2041376  )
         3           Fe  tau(   3) = (   0.4999989   0.3535526   0.0000000  )
         4           Fe  tau(   4) = (   0.3333326   0.2357017   0.2041376  )
         5           Fe  tau(   5) = (   0.1686570   0.1178361   0.4052985  )
         6           Fe  tau(   6) = (   0.3341358   0.9417664   0.6035990  )
         7           Fe  tau(   7) = (   0.5010430   0.3547508   0.4069156  )
         8           Fe  tau(   8) = (   0.3388211   0.2353710   0.6054253  )
         9           Fe  tau(   9) = (   0.2499989   0.3535526   0.0000000  )
        10           Fe  tau(  10) = (   0.4166663   0.1178509   0.0000000  )
        11           Fe  tau(  11) = (   0.0833326   0.2357017   0.2041376  )
        12           Fe  tau(  12) = (   0.2500000   0.0000000   0.2041376  )
        13           Fe  tau(  13) = (   0.2500012   0.3535905   0.4067842  )
        14           Fe  tau(  14) = (   0.4190288   0.1195738   0.4060351  )
        15           Fe  tau(  15) = (   0.0865029   0.2339483   0.6039407  )
        16           Fe  tau(  16) = (   0.2513002   0.0009626   0.6053753  )
        17           Fe  tau(  17) = (   0.6666663   0.1178509   0.0000000  )
        18           Fe  tau(  18) = (   0.5000000   0.0000000   0.2041376  )
        19           Fe  tau(  19) = (   0.9999989   0.3535526   0.0000000  )
        20           Fe  tau(  20) = (   0.8333326   0.2357017   0.2041376  )
        21           Fe  tau(  21) = (   0.6681070   0.1185056   0.4068920  )
        22           Fe  tau(  22) = (   0.5014987   0.0053781   0.6054539  )
        23           Fe  tau(  23) = (   0.9989796   0.3524590   0.4068887  )
        24           Fe  tau(  24) = (   0.8420520   0.2235134   0.6021218  )
        25           Fe  tau(  25) = (   0.7499989   0.3535526   0.0000000  )
        26           Fe  tau(  26) = (   0.9166663   0.1178509   0.0000000  )
        27           Fe  tau(  27) = (   0.5833326   0.2357017   0.2041376  )
        28           Fe  tau(  28) = (   0.7500000   0.0000000   0.2041376  )
        29           Fe  tau(  29) = (   0.7500236   0.3535939   0.4028008  )
        30           Fe  tau(  30) = (   0.9183951   0.1154738   0.4034655  )
        31           Fe  tau(  31) = (   0.5922890   0.2421038   0.6094174  )
        32           Fe  tau(  32) = (   1.0840350   0.9393380   0.6039418  )
        33           Fe  tau(  33) = (   0.3333315   0.5892543   0.0000000  )
        34           Fe  tau(  34) = (   0.1666652   0.4714034   0.2041376  )
        35           Fe  tau(  35) = (   0.6666640   0.8249560   0.0000000  )
        36           Fe  tau(  36) = (   0.4999978   0.7071052   0.2041376  )
        37           Fe  tau(  37) = (   0.3313717   0.5893360   0.4053031  )
        38           Fe  tau(  38) = (   1.1612429   0.4718510   0.6054455  )
        39           Fe  tau(  39) = (   0.6672999   0.8268818   0.4053013  )
        40           Fe  tau(  40) = (   0.4992366   0.7082722   0.6034780  )
        41           Fe  tau(  41) = (   0.4166640   0.8249560   0.0000000  )
        42           Fe  tau(  42) = (   0.5833315   0.5892543   0.0000000  )
        43           Fe  tau(  43) = (   1.2499978   0.7071052   0.2041376  )
        44           Fe  tau(  44) = (   0.4166652   0.4714034   0.2041376  )
        45           Fe  tau(  45) = (   0.4166665   0.8250173   0.4049699  )
        46           Fe  tau(  46) = (   0.5816472   0.5917018   0.4034350  )
        47           Fe  tau(  47) = (   1.2487477   0.7062702   0.6053654  )
        48           Fe  tau(  48) = (   0.4135322   0.4732989   0.6040109  )
        49           Fe  tau(  49) = (   0.8333315   0.5892543   0.0000000  )
        50           Fe  tau(  50) = (   0.6666652   0.4714034   0.2041376  )
        51           Fe  tau(  51) = (   1.1666640   0.8249560   0.0000000  )
        52           Fe  tau(  52) = (   0.9999978   0.7071052   0.2041376  )
        53           Fe  tau(  53) = (   0.8319285   0.5887257   0.4069179  )
        54           Fe  tau(  54) = (   0.6579955   0.4838139   0.6021141  )
        55           Fe  tau(  55) = (   1.1660742   0.8231260   0.4052964  )
        56           Fe  tau(  56) = (   0.9985899   0.7019248   0.6054131  )
        57           Fe  tau(  57) = (   0.9166640   0.8249560   0.0000000  )
        58           Fe  tau(  58) = (   1.0833315   0.5892543   0.0000000  )
        59           Fe  tau(  59) = (   0.7499978   0.7071052   0.2041376  )
        60           Fe  tau(  60) = (   0.9166652   0.4714034   0.2041376  )
        61           Fe  tau(  61) = (   0.9166921   0.8250249   0.4067847  )
        62           Fe  tau(  62) = (   1.0809967   0.5876498   0.4060352  )
        63           Fe  tau(  63) = (   0.7493592   0.7108084   0.6040097  )
        64           Fe  tau(  64) = (   0.9078334   0.4652128   0.6093978  )
        65           N   tau(  65) = (   0.7501811   0.3537892   0.7047560  )
        66           H   tau(  66) = (   0.7501937   0.3538470   0.8083119  )

     number of k points=    10  Methfessel-Paxton smearing, width (Ry)=  0.0100
                       cart. coord. in units 2pi/alat
        k(    1) = (   0.0000000   0.0000000   0.0000000), wk =   0.0625000
        k(    2) = (   0.0000000   0.2651656   0.0000000), wk =   0.1250000
        k(    3) = (   0.0000000  -0.5303313   0.0000000), wk =   0.0625000
        k(    4) = (   0.2500000  -0.0883878   0.0000000), wk =   0.1250000
        k(    5) = (   0.2500000   0.1767779   0.0000000), wk =   0.1250000
        k(    6) = (   0.2500000  -0.6187190   0.0000000), wk =   0.1250000
        k(    7) = (   0.2500000  -0.3535534   0.0000000), wk =   0.1250000
        k(    8) = (  -0.5000000   0.1767755   0.0000000), wk =   0.0625000
        k(    9) = (  -0.5000000   0.4419412   0.0000000), wk =   0.1250000
        k(   10) = (  -0.5000000  -0.3535558   0.0000000), wk =   0.0625000

     Check: negative core charge=   -0.000039

     Initial potential from superposition of free atoms

     starting charge 1029.97193, renormalised to 1030.00000

     negative rho (up, down):  2.450E-02 2.523E-03
     Starting wfcs are  837 randomized atomic wfcs
     Checking if some PAW data can be deallocated...

     Self-consistent Calculation

     iteration #  1     ecut=    60.00 Ry     beta= 0.20
     Davidson diagonalization with overlap
     c_bands:  1 eigenvalues not converged
     ethr =  1.00E-04,  avg # of iterations = 18.8

     negative rho (up, down):  1.291E-02 3.474E-03

     total energy              =  -21088.73544169 Ry
     Harris-Foulkes estimate   =  -21095.61582518 Ry
[...]
     atom:   56    charge:   12.9314    magn:    2.4366    constr:    0.0000
     atom:   57    charge:   12.9321    magn:    2.4287    constr:    0.0000
     atom:   58    charge:   12.9314    magn:    2.4358    constr:    0.0000
     atom:   59    charge:   12.9253    magn:    2.2686    constr:    0.0000
     atom:   60    charge:   12.9247    magn:    2.2689    constr:    0.0000
     atom:   61    charge:   12.9271    magn:    2.2531    constr:    0.0000
     atom:   62    charge:   12.9314    magn:    2.2053    constr:    0.0000
     atom:   63    charge:   12.9371    magn:    2.3932    constr:    0.0000
     atom:   64    charge:   12.9251    magn:    2.3136    constr:    0.0000
     atom:   65    charge:    1.3300    magn:   -0.0321    constr:    0.0000
     atom:   66    charge:    0.4349    magn:    0.0076    constr:    0.0000

     End of self-consistent calculation

 ------ SPIN UP ------------

[...]

 ------ SPIN DOWN ----------

[...]

          k = 0.2500-0.3536 0.0000 (128397 PWs)   bands (ev):

[...]

          k =-0.5000-0.3536 0.0000 (128560 PWs)   bands (ev):

   -92.3482 -92.3465 -91.9940 -91.9918 -91.9246 -91.9226 -91.8954 -91.8900
   -91.8769 -91.8731 -91.8668 -91.8653 -91.8608 -91.8569 -91.8532 -91.8528
   -91.8488 -91.8483 -91.8477 -91.8456 -91.8440 -91.8383 -91.8349 -91.8348
   -91.8321 -91.8282 -91.8279 -91.8271 -91.8266 -91.8263 -91.8258 -91.8241
   -91.8087 -91.8050 -91.8049 -91.8039 -91.7997 -91.7983 -91.7966 -91.7865
   -91.7843 -91.7832 -91.7829 -91.7826 -91.7824 -91.7798 -91.7794 -91.7736
   -91.7734 -91.7630 -91.7621 -91.7607 -91.7607 -91.7602 -91.7597 -91.7589
   -91.7587 -91.7578 -91.7568 -91.7515 -91.7384 -91.7383 -91.7377 -91.7374
   -58.7862 -58.7704 -58.4404 -58.4351 -58.2853 -58.2683 -58.2255 -58.2221
   -58.1542 -58.1534 -58.1516 -58.1514 -58.1456 -58.1446 -58.1440 -58.1360
   -58.1358 -58.1332 -58.1323 -58.1286 -58.1273 -58.1270 -58.1245 -58.1244
   -58.1233 -58.1176 -58.1136 -58.1132 -58.1102 -58.1036 -58.1012 -58.1009
   -58.0996 -58.0906 -58.0853 -58.0846 -58.0844 -58.0834 -58.0782 -58.0756
   -58.0733 -58.0650 -58.0639 -58.0622 -58.0549 -58.0544 -58.0504 -58.0490
   -58.0488 -58.0478 -58.0435 -58.0433 -58.0404 -58.0375 -58.0366 -58.0359
   -58.0337 -58.0322 -58.0309 -58.0297 -58.0273 -58.0271 -58.0263 -58.0233
   -58.0168 -58.0157 -58.0150 -58.0127 -58.0062 -58.0020 -58.0018 -57.9963
   -57.9876 -57.9849 -57.9821 -57.9747 -57.9672 -57.9654 -57.9652 -57.9637
   -57.9620 -57.9542 -57.9539 -57.9504 -57.9453 -57.9418 -57.9384 -57.9348
   -57.9346 -57.9336 -57.9317 -57.9301 -57.9252 -57.9238 -57.9231 -57.9213
   -57.9205 -57.9189 -57.9188 -57.9157 -57.9042 -57.9017 -57.9002 -57.8969
   -57.8958 -57.8910 -57.8898 -57.8882 -57.8881 -57.8871 -57.8843 -57.8834
   -57.8826 -57.8826 -57.8780 -57.8769 -57.8769 -57.8754 -57.8744 -57.8706
   -57.8694 -57.8616 -57.8607 -57.8591 -57.8587 -57.8536 -57.8528 -57.8511
   -57.8488 -57.8471 -57.8471 -57.8468 -57.8409 -57.8366 -57.8346 -57.8342
   -57.8319 -57.8296 -57.8289 -57.8289 -57.8277 -57.8272 -57.8232 -57.8230
   -57.8224 -57.8216 -57.8189 -57.8182 -57.8165 -57.8153 -57.8152 -57.8128
   -57.8087 -57.8081 -57.8062 -57.8056 -57.8053 -57.8028 -57.7992 -57.7985
   -57.7985 -57.7962 -57.7959 -57.7956 -57.7951 -57.7946 -57.7942 -57.7926
   -57.7925 -57.7912 -57.7905 -57.7892 -57.7882 -57.7880 -57.7868 -57.7837
   -57.7829 -57.7807 -57.7806 -57.7800 -57.7800 -57.7734 -57.7722 -57.7722
   -57.7710 -57.7694 -57.7688 -57.7668 -57.7666 -57.7658 -57.7625 -57.7619
   -22.9794 -14.4943 -13.8411 -13.7497 -13.2838 -13.2011 -12.5913 -12.4318
   -12.1640 -11.8901 -11.7674 -11.6207 -11.2553 -11.2375 -11.1890 -11.1368
   -10.7840 -10.7589 -10.4235 -10.4143 -10.4027 -10.3835 -10.3597 -10.3259
   -10.3060 -10.2873 -10.2707 -10.2287 -10.2163 -10.1660  -9.8661  -9.8437
    -9.8353  -9.8342  -9.8004  -9.7900  -9.6423  -9.6002  -9.3840  -9.3655
    -9.3600  -9.3367  -9.3244  -9.3062  -9.2980  -9.2754  -9.2365  -9.2241
    -9.2088  -9.1235  -9.0935  -9.0863  -9.0720  -9.0648  -9.0410  -8.9718
    -8.8263  -8.8192  -8.7974  -8.7826  -8.7708  -8.7643  -8.5614  -8.5421
    -8.5297  -8.5007  -8.4970  -8.4731  -8.3842  -8.3630  -8.3401  -8.3156
    -8.3116  -8.2794  -8.2711  -8.2683  -8.2656  -8.2577  -8.2430  -8.2386
    -8.2108  -8.2026  -8.1660  -8.1588  -8.1524  -8.1482  -8.1407  -8.1371
    -8.1342  -8.1177  -8.0957  -8.0245  -8.0114  -7.9324  -7.9268  -7.9180
    -7.8551  -7.8122  -7.7946  -7.7927  -7.7899  -7.7827  -7.7759  -7.7613
    -7.7530  -7.7470  -7.7395  -7.7174  -7.7158  -7.7115  -7.7093  -7.7024
    -7.6939  -7.6849  -7.6758  -7.6688  -7.6618  -7.6499  -7.6492  -7.6434
    -7.6405  -7.6399  -7.6354  -7.6305  -7.6159  -7.6128  -7.6026  -7.5815
    -7.5645  -7.5612  -7.5585  -7.5576  -7.5476  -7.5385  -7.5285  -7.5266
    -7.5263  -7.4945  -7.4922  -7.4875  -7.4373  -7.4264  -7.3425  -7.3217
    -7.2915  -7.2753  -7.2654  -7.2641  -7.2513  -7.2468  -7.2310  -7.2210
    -7.2116  -7.1617  -7.1481  -7.1145  -7.1037  -7.1022  -7.0967  -7.0799
    -7.0697  -7.0517  -7.0291  -7.0198  -7.0093  -7.0089  -6.9772  -6.9172
    -6.8723  -6.8500  -6.8270  -6.8021  -6.7683  -6.7632  -6.7576  -6.7528
    -6.7510  -6.7346  -6.7268  -6.7065  -6.7061  -6.6735  -6.6730  -6.6463
    -6.6445  -6.6438  -6.6385  -6.6075  -6.5910  -6.3711  -6.3559  -6.3463
    -6.2873  -6.2476  -6.2445  -6.2115  -6.0824  -6.0375  -5.9766  -5.9674
    -5.9441  -5.9017  -5.8994  -5.8743  -5.8703  -5.8480  -5.8454  -5.8071
    -5.8027  -5.7951  -5.7918  -5.7504  -5.6977  -5.6973  -5.6819  -5.6792
    -5.6606  -5.6387  -5.6357  -5.6091  -5.5982  -5.5904  -5.5634  -5.5131
[...]
    -5.1886  -5.1735  -5.1639  -5.1582  -5.1193  -5.1146  -5.0837  -5.0761
    -5.0548  -5.0460  -5.0444  -5.0431  -5.0389  -5.0272  -5.0154  -5.0083
    -4.9954  -4.9846  -4.9758  -4.9749  -4.9708  -4.9707  -4.9702  -4.9559
    -4.9519  -4.9326  -4.9242  -4.9234  -4.9213  -4.9211  -4.9136  -4.9036
    -4.8973  -4.8892  -4.8801  -4.8733  -4.8716  -4.8696  -4.8660  -4.8643
    -4.8623  -4.8440  -4.8355  -4.8353  -4.8192  -4.8029  -4.8010  -4.8004
    -4.7987  -4.7885  -4.7880  -4.7851  -4.7773  -4.7552  -4.7523  -4.7411
    -4.7049  -4.6855  -4.6803  -4.6793  -4.6690  -4.6594  -4.6572  -4.6486
    -4.6372  -4.6337  -4.6199  -4.6100  -4.6081  -4.6058  -4.5999  -4.5930
    -4.5887  -4.5856  -4.5827  -4.5748  -4.5711  -4.5701  -4.5696  -4.5441
    -4.5432  -4.5333  -4.5330  -4.5258  -4.5238  -4.5176  -4.5092  -4.5054
    -4.5032  -4.4949  -4.4924  -4.4745  -4.4454  -4.4242  -4.4237  -4.4004
    -4.3968  -4.3790  -4.3159  -4.2861  -4.2049  -4.1912  -4.1833  -4.1777
    -3.9846  -3.9750  -3.9714  -3.9678  -3.9207  -3.9060  -3.8987  -3.8982
    -3.8784  -3.8750

     the Fermi energy is    -6.7281 ev

!    total energy              =  -21093.75801590 Ry
     Harris-Foulkes estimate   =  -21093.75801747 Ry
     estimated scf accuracy    <          9.8E-11 Ry

     The total energy is the sum of the following terms:

     one-electron contribution = -744029.93426969 Ry
     hartree contribution      =  371755.59103731 Ry
     xc contribution           =   -2234.27087181 Ry
     ewald contribution        =  358289.69004942 Ry
     Dispersion Correction     =      -1.39259460 Ry
     one-center paw contrib.   =   -4873.44300439 Ry
     smearing contrib. (-TS)   =       0.00163785 Ry

     total magnetization       =   160.98 Bohr mag/cell
     absolute magnetization    =   167.65 Bohr mag/cell

     convergence has been achieved in  14 iterations

     negative rho (up, down):  2.467E-02 1.968E-02

     Forces acting on atoms (cartesian axes, Ry/au):

     atom    1 type  1   force =     0.00054171   -0.00036536    0.00899101
     atom    2 type  1   force =     0.00169108   -0.00237727   -0.01304152
     atom    3 type  1   force =    -0.00033540   -0.00030872    0.00866897
     atom    4 type  1   force =     0.00047151    0.00055930   -0.00802048
     atom    5 type  1   force =    -0.00000299    0.00001176   -0.00001150
     atom    6 type  1   force =    -0.00000783    0.00000397    0.00002113
     atom    7 type  1   force =     0.00000881   -0.00000756   -0.00004428
     atom    8 type  1   force =    -0.00000297   -0.00003219    0.00009857
     atom    9 type  1   force =    -0.00000372    0.00001081    0.00932076
     atom   10 type  1   force =    -0.00018362   -0.00012609    0.00903288
     atom   11 type  1   force =    -0.00034232    0.00131702   -0.00698237
     atom   12 type  1   force =     0.00098024    0.00079155   -0.01113840
     atom   13 type  1   force =     0.00000393   -0.00000509    0.00005318
     atom   14 type  1   force =    -0.00001988   -0.00002499   -0.00001768
     atom   15 type  1   force =    -0.00000795    0.00001080    0.00007554
     atom   16 type  1   force =    -0.00004025   -0.00004892    0.00000272
     atom   17 type  1   force =    -0.00038478   -0.00021756    0.00863240
     atom   18 type  1   force =     0.00068033    0.00032683   -0.00801547
     atom   19 type  1   force =     0.00035011    0.00028530    0.00863113
     atom   20 type  1   force =     0.00056123   -0.00074603   -0.01131255
     atom   21 type  1   force =     0.00000564   -0.00000286   -0.00004112
     atom   22 type  1   force =    -0.00002072   -0.00002105    0.00009581
     atom   23 type  1   force =    -0.00000388   -0.00001231   -0.00004294
     atom   24 type  1   force =     0.00007980   -0.00012524   -0.00005285
     atom   25 type  1   force =     0.00002358   -0.00001112    0.00767257
     atom   26 type  1   force =    -0.00066878    0.00093277    0.00943902
     atom   27 type  1   force =    -0.00009585   -0.00008436   -0.00641645
     atom   28 type  1   force =    -0.00110058    0.00080690   -0.00697386
     atom   29 type  1   force =     0.00000070   -0.00000932   -0.00004629
     atom   30 type  1   force =    -0.00002461    0.00002933   -0.00000687
     atom   31 type  1   force =    -0.00008591   -0.00008367    0.00003448
     atom   32 type  1   force =    -0.00001920    0.00000053    0.00007473
     atom   33 type  1   force =    -0.00053573    0.00036594    0.00897183
     atom   34 type  1   force =    -0.00050098   -0.00053012   -0.00800598
     atom   35 type  1   force =    -0.00017836    0.00061715    0.00898934
     atom   36 type  1   force =    -0.00180832    0.00255029   -0.01303332
     atom   37 type  1   force =     0.00000950   -0.00003154   -0.00000837
     atom   38 type  1   force =     0.00001298    0.00000683    0.00009603
     atom   39 type  1   force =     0.00001804   -0.00002324   -0.00000910
     atom   40 type  1   force =     0.00002063   -0.00003466    0.00002705
     atom   41 type  1   force =     0.00000506   -0.00000039    0.00782611
     atom   42 type  1   force =     0.00067754   -0.00092318    0.00949786
     atom   43 type  1   force =    -0.00106137   -0.00063773   -0.01114132
     atom   44 type  1   force =     0.00034314   -0.00126053   -0.00695111
     atom   45 type  1   force =     0.00000531   -0.00001154    0.00004780
     atom   46 type  1   force =     0.00003005   -0.00005027   -0.00000542
     atom   47 type  1   force =     0.00005099    0.00001662    0.00000346
     atom   48 type  1   force =     0.00002170   -0.00004309    0.00007166
     atom   49 type  1   force =     0.00040320    0.00020499    0.00868701
     atom   50 type  1   force =    -0.00047909    0.00070876   -0.01132598
     atom   51 type  1   force =     0.00017399   -0.00064224    0.00899966
     atom   52 type  1   force =    -0.00067781   -0.00021859   -0.00801311
     atom   53 type  1   force =    -0.00000222   -0.00001659   -0.00004489
     atom   54 type  1   force =    -0.00006541    0.00007609   -0.00005169
     atom   55 type  1   force =    -0.00001588    0.00000180   -0.00001150
     atom   56 type  1   force =     0.00002194   -0.00001911    0.00009728
     atom   57 type  1   force =    -0.00003863   -0.00000871    0.00932290
     atom   58 type  1   force =     0.00017404    0.00014065    0.00902271
     atom   59 type  1   force =     0.00109403   -0.00070732   -0.00695273
     atom   60 type  1   force =     0.00013780    0.00009046   -0.00642631
     atom   61 type  1   force =     0.00000086   -0.00001222    0.00005114
     atom   62 type  1   force =     0.00002523    0.00000502   -0.00001926
     atom   63 type  1   force =     0.00002721   -0.00004605    0.00006881
     atom   64 type  1   force =     0.00008914    0.00004231    0.00003568
     atom   65 type  2   force =    -0.00001373   -0.00003895   -0.00006989
     atom   66 type  3   force =    -0.00001224   -0.00004801    0.00037141

     Total force =     0.000563     Total SCF correction =     0.000044

     bfgs converged in   6 scf cycles and   5 bfgs steps
     (criteria: energy <  7.3E-07 Ry, force <  3.9E-04 Ry/Bohr)

     End of BFGS Geometry Optimization

     Final energy   =  -21093.7580158971 Ry
Begin final coordinates

ATOMIC_POSITIONS (angstrom)
Fe       1.654912953   1.170200133   0.000000000    0   0   0
Fe       0.000000000   0.000000000   2.026984232    0   0   0
Fe       4.964738858   3.510600399   0.000000000    0   0   0
Fe       3.309825906   2.340400266   2.026984232    0   0   0
Fe       1.674396797   1.170135795   4.024931588
Fe       3.317582715   9.351511739   5.993664305
Fe       4.975246130   3.522373150   4.041069974
Fe       3.364542372   2.336820707   6.011960784
Fe       2.482363858   3.510600399   0.000000000    0   0   0
Fe       4.137287953   1.170200133   0.000000000    0   0   0
Fe       0.827450906   2.340400266   2.026984232    0   0   0
Fe       2.482375000   0.000000000   2.026984232    0   0   0
Fe       2.482387522   3.510923211   4.039753097
Fe       4.160874302   1.187345721   4.032512142
Fe       0.857864064   2.323055388   5.997268247
Fe       2.494803342   0.009087265   6.010513871
Fe       6.619662953   1.170200133   0.000000000    0   0   0
Fe       4.964750000   0.000000000   2.026984232    0   0   0
Fe       9.929488858   3.510600399   0.000000000    0   0   0
Fe       8.274575906   2.340400266   2.026984232    0   0   0
Fe       6.633984150   1.176740935   4.040841143
Fe       4.979494245   0.053502748   6.012218665
Fe       9.919262302   3.499718772   4.040815976
Fe       8.360464245   2.220270967   5.978937263
Fe       7.447113858   3.510600399   0.000000000    0   0   0
Fe       9.102037953   1.170200133   0.000000000    0   0   0
Fe       5.792200906   2.340400266   2.026984232    0   0   0
Fe       7.447125000   0.000000000   2.026984232    0   0   0
Fe       7.447385545   3.510936020   3.999706642
Fe       9.119219693   1.146535147   4.006360607
Fe       5.882297405   2.404688155   6.051535815
Fe      10.764171005   9.328126767   5.997290911
Fe       3.309814764   5.851000664   0.000000000    0   0   0
Fe       1.654901811   4.680800531   2.026984232    0   0   0
Fe       6.619640670   8.191400930   0.000000000    0   0   0
Fe       4.964727717   7.021200797   2.026984232    0   0   0
Fe       3.290652299   5.851635206   4.024979927
Fe      11.530421348   4.685374481   6.012161691
Fe       6.626004064   8.210151360   4.024953769
Fe       4.957524535   7.032267806   5.992509273
Fe       4.137265670   8.191400930   0.000000000    0   0   0
Fe       5.792189764   5.851000664   0.000000000    0   0   0
Fe      12.411852717   7.021200797   2.026984232    0   0   0
Fe       4.137276811   4.680800531   2.026984232    0   0   0
Fe       4.137311842   8.191933612   4.021109575
Fe       5.775518522   5.875209950   4.006106179
Fe      12.400015554   7.013184215   6.010433686
Fe       4.107399461   4.699325677   5.997989448
Fe       8.274564764   5.851000664   0.000000000    0   0   0
Fe       6.619651811   4.680800531   2.026984232    0   0   0
Fe      11.584390670   8.191400930   0.000000000    0   0   0
Fe       9.929477717   7.021200797   2.026984232    0   0   0
Fe       8.260667188   5.845555999   4.041062332
Fe       6.534345153   4.802853070   5.978942698
Fe      11.578512781   8.173489438   4.024917536
Fe       9.915656002   6.969388282   6.011828420
Fe       9.102015670   8.191400930   0.000000000    0   0   0
Fe      10.756939764   5.851000664   0.000000000    0   0   0
Fe       7.447102717   7.021200797   2.026984232    0   0   0
Fe       9.102026811   4.680800531   2.026984232    0   0   0
Fe       9.102287279   8.192050985   4.039754609
Fe      10.733620160   5.834929685   4.032516543
Fe       7.440580173   7.056615628   5.997963680
Fe       9.013146724   4.618397183   6.051332760
N        7.448851461   3.512687181   6.997395469
H        7.448964220   3.513230705   8.026644719
End final coordinates

     Writing output data file Fe_NH_paper_480c_ESM_pn25.save/

     General routines

     Parallel routines

   This run was terminated on:   9:39:23  13Jun2022

   JOB DONE.